ITEM: TIMESTEP
125
ITEM: NUMBER OF ATOMS
864
ITEM: BOX BOUNDS xy xz yz pp pp pp
-1.4585111762023090e-01 5.4369422091341121e+01 1.3634702257143257e+01
-1.3617476747256099e-01 3.1351384887258050e+01 1.3633946356919633e+01
-1.2776961206037027e-01 2.2136371557893423e+01 7.8715625992844735e+00
ITEM: ATOMS id type x y z f_grace_gamma
433 2 40.8683 7.92009 22.2078 0.526001
434 2 2.33088 0.837819 0.669651 0.349864
435 2 16.1824 24.8274 3.60929 0.394785
445 2 15.9845 11.4429 22.0293 0.605947
1 1 4.37735 2.51337 1.82489 0.407097
2 1 6.71049 3.63791 2.63764 0.468695
505 2 31.7129 31.1994 21.9291 0.620483
506 2 6.55933 1.34724 0.984588 0.471669
507 2 20.1928 24.6176 3.67974 0.463126
517 2 6.69543 3.90629 -0.0769507 0.484267
73 1 9.23205 2.31315 1.95138 0.389562
74 1 11.3453 3.50803 2.91994 0.498871
577 2 22.7041 23.4935 0.379199 0.623843
578 2 11.3514 0.834955 1.38863 0.724056
579 2 25.0267 24.5953 3.68559 0.766215
589 2 11.1812 3.51214 0.279148 0.757163
145 1 13.5923 2.38376 1.78816 0.492638
146 1 15.7436 3.59214 2.76168 0.425864
649 2 27.0663 7.90086 22.0918 0.602795
650 2 15.9105 1.11121 0.846005 0.383855
651 2 29.5901 24.8138 3.54471 0.532926
661 2 29.4766 11.595 22.035 0.472717
217 1 18.1077 2.28727 1.67676 0.512684
218 1 20.4237 3.82417 2.36343 0.371026
722 2 20.5393 1.39242 0.61907 0.543981
723 2 20.3843 1.53552 3.5852 0.474814
289 1 22.7332 2.59913 1.76359 0.369786
290 1 25.1133 3.74316 2.46294 0.608763
794 2 24.7813 1.2608 0.664326 0.478498
795 2 24.6297 1.14372 3.15174 0.996983
361 1 27.2249 2.6156 1.38893 0.873774
362 1 29.1921 3.77519 2.48541 0.647149
13 1 6.44238 6.13402 1.87578 0.351599
446 2 4.15931 5.13028 0.782363 0.640175
447 2 4.27921 5.11407 3.57479 0.407474
457 2 31.5407 7.63415 0.18832 0.423697
14 1 9.05569 7.61955 2.51162 0.298859
85 1 11.2696 6.26291 1.85748 0.462645
518 2 8.84548 5.09271 0.780006 0.67273
519 2 8.82743 4.95184 3.3852 0.467774
529 2 22.6516 15.2916 21.9304 0.616046
86 1 13.4041 7.25766 2.41144 0.57988
157 1 15.8691 6.27365 1.96109 0.418727
590 2 13.4447 4.86879 0.727427 0.632676
591 2 13.3905 4.82251 3.91354 0.325048
601 2 27.2318 15.446 22.1105 0.620041
158 1 18.2227 7.43463 2.6422 0.542768
229 1 20.5864 6.3643 1.60717 0.500083
662 2 18.105 4.94533 0.738637 0.472513
663 2 18.1063 4.9323 3.56023 0.382938
673 2 31.6677 15.6394 22.2211 0.65024
230 1 22.6588 7.83328 2.38732 0.421766
301 1 24.8145 6.48043 1.73027 0.564647
734 2 22.5633 5.00985 0.421936 0.453829
735 2 22.8242 5.05636 3.28884 0.649038
302 1 27.1076 7.97674 2.88901 0.497787
806 2 26.9877 5.43759 0.923818 0.478868
807 2 26.9243 5.31549 3.33632 0.421207
373 1 29.2572 6.53627 1.9542 0.508615
374 1 31.8325 7.83242 2.93529 0.436039
458 2 6.80099 9.13139 0.973732 0.440869
25 1 9.12947 10.2484 1.93609 0.535513
26 1 11.4268 11.5637 2.63432 0.454046
470 2 9.14368 13.1032 0.99265 0.596374
471 2 9.21427 13.2557 3.69748 0.61338
530 2 11.2048 8.86433 0.868449 0.429136
531 2 11.1964 8.90802 3.64745 0.491678
541 2 25.1219 19.1257 22.0486 0.602223
97 1 13.5399 10.1186 1.52561 0.387486
98 1 15.6597 11.5334 2.49721 0.66417
542 2 13.4261 12.8232 0.911535 0.57475
543 2 13.2139 12.9734 3.79631 0.78569
602 2 15.7693 8.77394 0.685316 0.535314
603 2 15.603 8.56482 3.54594 0.571056
613 2 29.152 19.254 22.0134 0.682677
169 1 17.8793 10.5257 1.38319 0.660736
170 1 20.1988 11.4526 2.38286 0.5176
614 2 18.0418 13.2896 0.547623 0.700857
615 2 17.6855 12.9536 3.48034 0.535031
674 2 20.0195 9.13836 0.546031 0.525883
675 2 20.1021 8.97682 3.36791 0.460519
685 2 34.3105 19.8115 22.2206 0.736447
241 1 22.5688 10.5904 1.77706 0.45986
242 1 24.8365 11.8681 2.91272 0.575244
686 2 22.7462 13.2815 0.773099 0.618042
687 2 22.4277 12.9881 3.43089 0.382437
746 2 24.8925 9.29863 0.997708 0.58629
747 2 24.7394 9.26781 3.62535 0.740811
313 1 26.9942 10.3568 1.91019 0.482977
758 2 27.4155 12.9291 0.875227 0.543239
759 2 27.1385 13.1563 3.71979 0.423542
314 1 29.6018 11.658 2.7309 0.45028
385 1 31.8581 10.4151 1.88324 0.587308
818 2 29.0287 9.06841 1.11632 0.3842
819 2 29.3114 9.0176 4.02023 0.473333
830 2 31.9478 13.1004 0.762432 0.397656
831 2 31.8267 13.1114 3.50486 0.534358
386 1 34.1866 11.8851 2.9286 0.440808
459 2 7.00721 9.27052 3.83264 0.578785
469 2 20.7734 19.7284 22.2619 0.338728
37 1 11.3186 14.4338 1.82651 0.405304
482 2 11.272 16.7892 0.688538 0.546127
38 1 13.5278 15.6565 2.66714 0.540261
109 1 15.7017 14.2422 1.90867 0.801774
553 2 26.99 23.6072 21.7993 0.544219
554 2 15.5579 16.6734 1.03155 0.40508
555 2 15.577 16.7153 3.79056 0.775549
110 1 17.955 15.6571 2.58082 0.52669
181 1 20.2393 14.2694 1.82098 0.466826
625 2 31.4308 23.8295 21.9218 0.617272
626 2 20.3719 17.061 0.983895 0.442718
627 2 20.4295 16.8795 3.6639 0.693884
182 1 22.4928 15.5278 2.53427 0.490179
253 1 24.9121 14.3426 1.87001 0.326253
697 2 36.1385 23.5585 22.2936 0.667557
698 2 24.8816 16.9395 1.0899 0.67901
699 2 24.8771 16.954 3.49071 0.39526
254 1 27.2095 15.5822 2.674 0.673614
325 1 29.5417 14.248 1.72705 0.38806
326 1 31.805 15.7184 2.62524 0.418777
770 2 29.3906 17.1403 0.772383 0.455363
771 2 29.2827 16.8932 3.46248 0.509358
397 1 34.1707 14.4386 1.55111 0.497897
398 1 36.1982 15.7411 2.54169 0.41704
481 2 36.3451 15.5892 -0.23269 0.540231
842 2 34.0483 16.8725 0.775364 0.454236
843 2 33.8464 16.9781 3.44291 0.461855
483 2 11.5431 16.8867 3.71388 0.621549
493 2 24.994 27.7345 22.0053 0.626765
49 1 13.5392 18.4331 1.7619 0.622246
50 1 15.723 19.5702 2.65944 0.60969
61 1 15.8309 22.2568 1.88932 0.538078
494 2 13.3979 20.6922 0.807464 0.385826
495 2 40.6336 21.2373 3.58527 0.452855
565 2 16.049 19.6027 0.105422 0.680518
121 1 18.0701 18.2355 1.7017 0.529929
122 1 20.1919 19.5372 2.68754 0.570165
133 1 20.3286 22.0657 1.76409 0.535164
566 2 18.1343 21.0395 0.613913 0.460453
567 2 18.0268 21.0269 3.75579 0.522207
637 2 33.9499 27.3774 21.9097 0.763973
193 1 22.7212 18.1439 2.05111 0.523576
194 1 24.8504 19.4374 2.82545 0.505603
205 1 24.8353 21.7366 1.78599 0.530497
638 2 22.4299 20.6756 1.02241 0.401562
639 2 22.3336 20.6148 3.85335 0.50095
709 2 25.0932 19.3885 -0.17626 0.427612
265 1 27.1371 18.3214 1.68769 0.424614
710 2 27.3125 20.9518 0.503227 0.587906
711 2 27.2188 20.7062 3.44484 0.548776
266 1 29.5173 19.558 2.60762 0.4678
277 1 29.7682 22.0563 1.50209 0.599484
337 1 31.6977 18.1441 1.72657 0.645972
782 2 31.8965 20.5961 0.736413 0.520132
783 2 31.8671 20.7186 3.45979 0.392161
338 1 34.0246 19.2877 2.35461 0.612146
349 1 34.0352 22.0475 1.66056 0.568217
409 1 36.3826 18.2064 1.66084 0.679793
854 2 36.344 20.7105 0.986867 0.471119
855 2 36.1197 20.677 3.5728 0.387554
410 1 38.4161 19.7158 2.53658 0.53687
421 1 38.4616 22.3512 1.62268 0.446361
62 1 18.2424 23.4929 2.55419 0.431358
134 1 22.6814 23.3159 2.86874 0.490079
206 1 27.3646 23.3164 2.43347 0.677277
278 1 31.8001 23.377 2.50548 0.438939
350 1 36.2698 23.4574 2.66869 0.612977
422 1 40.9717 23.8356 2.59133 0.511495
3 1 6.76117 3.64605 5.39967 0.558418
436 2 4.47923 2.42795 4.79762 0.567827
437 2 45.3151 26.0767 7.34681 0.608522
438 2 6.58785 4.02937 8.07752 0.483879
75 1 11.2598 3.88689 5.52148 0.466482
508 2 9.03061 2.52039 4.55738 0.427761
509 2 9.16188 2.83059 7.21423 0.398315
510 2 11.3262 4.05439 8.22224 0.614209
147 1 15.8011 3.58093 5.66629 0.354281
580 2 13.601 2.22913 4.5994 0.540911
581 2 27.2442 26.1666 7.406 0.427993
582 2 16.0176 3.93487 8.26507 0.397289
219 1 20.2983 3.94298 5.39254 0.493351
652 2 18.1056 2.53646 4.58609 0.617951
653 2 31.5886 25.997 7.31862 0.529809
654 2 20.3418 3.68413 8.21872 0.427063
291 1 24.8462 3.87454 5.18593 0.471888
724 2 22.7582 2.6265 4.4079 0.600023
725 2 36.1808 25.8571 7.06669 0.367435
726 2 24.8417 3.7104 7.85855 0.658316
796 2 27.0549 2.35495 4.13445 0.512922
797 2 40.443 25.8141 6.9909 0.528587
363 1 29.5138 3.80657 5.29126 0.507068
798 2 29.3663 3.97919 7.99933 0.354311
448 2 6.58499 6.29105 4.47524 0.34455
449 2 33.8266 6.5249 7.34035 0.464842
4 1 8.78451 5.24381 6.31831 0.300084
15 1 8.76646 7.78719 5.42168 0.395314
450 2 8.86868 7.98795 8.28521 0.578841
520 2 11.0567 6.28092 4.75068 0.390259
521 2 10.9165 6.54581 7.54073 0.700204
76 1 13.3864 5.23785 6.68563 0.548777
87 1 13.3848 7.64103 5.44937 0.587127
522 2 13.4835 7.79336 8.373 0.479713
592 2 15.9111 6.27559 4.63874 0.587391
593 2 15.8495 6.61732 7.45931 0.564718
148 1 17.9736 4.99533 6.39306 0.369075
159 1 18.118 7.63011 5.1836 0.540587
594 2 18.0329 7.69874 8.2601 0.570369
664 2 20.6526 6.49226 4.20825 0.511735
665 2 20.1759 6.24242 7.12834 0.586106
220 1 22.4274 5.09593 6.11643 0.43977
231 1 22.7786 7.8055 5.52594 0.423974
666 2 22.8236 7.88378 8.57853 0.553054
736 2 24.8903 6.70567 4.61439 0.450271
737 2 24.7155 6.21807 7.07729 0.562042
292 1 27.2831 5.01896 6.15825 0.495209
303 1 27.1562 7.83078 5.68115 0.47347
738 2 26.8522 7.61948 8.23732 0.479316
364 1 31.6315 4.92335 6.37101 0.741971
375 1 31.6461 7.94051 5.65405 0.53577
808 2 29.5302 6.47224 4.94996 0.648705
809 2 29.2091 6.42623 7.61746 0.442473
810 2 31.5904 7.90708 8.33957 0.637429
16 1 11.359 8.98028 6.50978 0.479785
27 1 11.4624 11.841 5.26314 0.753687
460 2 9.35038 10.3386 4.77995 0.571586
462 2 11.0569 11.6666 7.85534 0.558566
28 1 13.3552 13.0403 6.72241 0.7466
88 1 15.8463 9.06333 6.44109 0.651783
99 1 15.5725 11.5021 5.29708 0.565308
532 2 13.5071 10.2236 4.27231 0.571177
533 2 13.5878 10.1459 7.13317 0.438354
534 2 15.6808 11.8171 8.02195 0.559433
100 1 17.7154 12.9859 6.41314 0.742322
160 1 20.3355 9.05203 6.14109 0.721333
171 1 20.0127 11.8086 5.38595 0.479291
604 2 18.0333 10.2373 3.93972 0.705191
605 2 17.9843 10.1322 6.78182 0.889075
606 2 20.1739 11.8273 8.01157 0.451595
172 1 22.3052 12.7816 6.21672 0.487343
232 1 24.8411 9.06819 6.64688 0.710624
243 1 24.6125 11.5792 5.54825 0.262021
676 2 22.3712 10.281 4.47159 0.511476
677 2 22.4829 10.3615 7.41002 0.531377
678 2 24.7407 11.6348 8.37088 0.426461
244 1 26.9771 13.0785 6.42257 0.527855
748 2 26.7273 10.3155 4.67519 0.499903
749 2 27.0205 10.871 7.39285 0.669516
304 1 29.454 9.20861 6.72854 0.609958
315 1 29.3811 11.515 5.49543 0.565615
316 1 31.4622 13.2063 6.54256 0.529376
750 2 29.354 11.8397 8.38585 0.727485
820 2 32.079 10.3873 4.76181 0.539301
821 2 31.6479 10.8387 7.25791 0.467291
376 1 34.0051 9.08973 6.5425 0.540706
387 1 33.8831 11.8819 5.53472 0.491187
388 1 36.2699 13.2188 6.37966 0.421165
461 2 35.8589 10.5017 7.49927 0.914787
822 2 33.9133 12.0409 8.59561 0.564004
472 2 11.237 14.5526 4.72505 0.893256
39 1 13.8029 15.6157 5.44012 0.679269
40 1 15.815 17.1128 6.45113 0.600267
474 2 13.3947 15.6621 8.11466 0.542584
544 2 15.491 13.8721 4.72015 1.03322
545 2 15.835 14.4789 7.45869 0.789564
111 1 17.8311 15.5609 5.49003 0.675726
112 1 20.3477 16.9075 6.3948 0.582273
546 2 18.063 15.5582 8.16323 0.454337
616 2 20.2928 14.4959 4.50136 0.450206
617 2 20.5515 14.5422 7.3724 0.920707
183 1 22.4609 15.4693 5.40177 0.414674
184 1 24.5761 16.7652 6.21777 0.645928
618 2 22.8002 15.7994 8.21472 0.735485
688 2 24.7793 14.1913 4.72334 0.556081
689 2 24.4547 14.0961 7.4362 0.702415
255 1 26.7459 15.655 5.35222 0.648006
690 2 26.723 15.4559 8.10065 0.646316
256 1 29.152 16.7838 6.18929 0.528275
327 1 31.4858 15.6813 5.14316 0.46548
760 2 29.402 14.1542 4.47892 0.465587
761 2 29.3796 14.3156 7.32122 0.67855
762 2 31.2857 15.7756 8.04905 0.416388
328 1 33.8154 16.8434 6.28765 0.554142
399 1 36.0981 15.7722 5.30917 0.553805
832 2 33.9526 14.2872 4.30756 0.335144
833 2 33.9137 14.3797 7.33394 0.361327
834 2 36.1433 15.7256 8.1561 0.639406
400 1 38.2733 17.0258 6.30961 0.458518
473 2 38.3931 14.2468 7.21805 0.462948
51 1 15.8231 19.6994 5.30933 0.374701
484 2 13.5566 18.439 4.38391 0.482408
486 2 15.9392 19.7551 8.49135 0.411221
496 2 15.6717 22.3796 4.68838 0.499274
52 1 18.0998 20.8844 6.46181 0.822354
123 1 20.3496 19.4629 5.32133 0.601927
556 2 18.0866 18.0699 4.34816 0.825096
557 2 18.4154 18.3663 7.56913 0.530923
558 2 20.6573 19.5165 8.42261 0.396754
568 2 20.4796 22.2918 4.39735 0.862613
569 2 20.4125 22.3365 7.40497 0.539213
124 1 22.5756 20.7529 6.49281 0.484986
195 1 24.8814 19.6695 5.44734 0.497576
628 2 22.4633 18.2395 4.52685 0.635645
629 2 22.6815 18.1578 7.26548 0.467879
630 2 24.9621 19.4525 8.2646 0.602427
640 2 24.926 22.2193 4.47967 0.54911
641 2 24.9423 22.2641 7.38176 0.471528
196 1 26.898 20.6405 6.61603 0.790847
700 2 27.1514 18.2899 4.96631 0.773665
701 2 26.7605 17.8296 7.32739 0.633926
267 1 29.1051 19.7079 5.44839 0.548406
268 1 31.5138 20.6306 6.1593 0.465115
702 2 29.4275 19.1667 8.10812 0.535705
712 2 29.4331 22.3785 4.15471 0.430186
713 2 29.2583 21.9439 7.22157 0.484993
772 2 31.3057 18.4725 4.45026 0.881724
773 2 31.3354 18.0197 6.55874 0.960671
339 1 33.7849 19.5797 5.24058 0.687871
340 1 36.1562 20.8234 6.27982 0.40786
774 2 33.7592 19.2324 8.31129 0.68696
784 2 33.8435 22.115 4.48382 0.503498
785 2 33.9472 21.9412 7.20401 0.559183
844 2 36.151 18.3148 4.52771 0.446349
845 2 35.8774 18.1861 7.19822 0.40153
411 1 38.5255 19.6356 5.43585 0.530297
412 1 40.7877 20.8652 6.11232 0.401771
485 2 13.7383 18.3384 7.18944 0.622793
846 2 38.142 19.4686 8.15363 0.545074
856 2 38.2329 22.2582 4.33922 0.385568
857 2 38.4002 22.1109 7.28722 0.350349
497 2 15.9299 22.064 7.49521 0.678597
63 1 18.2701 23.4866 5.57477 0.615986
64 1 20.6513 24.9454 6.55509 0.5157
498 2 17.9613 23.5173 8.46431 0.565271
135 1 22.7256 23.2307 5.45172 0.394468
136 1 24.9248 24.7605 6.47062 0.413204
570 2 22.9495 23.7154 8.11733 0.51624
207 1 27.2558 23.4224 5.20851 0.665256
642 2 27.2863 23.4152 7.89396 0.712152
208 1 29.3183 24.7765 6.40468 0.525681
279 1 31.408 23.4265 5.36022 0.597619
714 2 31.9743 23.1084 8.1283 0.580153
280 1 33.8452 24.5873 6.42301 0.454375
351 1 36.0637 23.4928 5.48037 0.528764
786 2 35.9255 23.2932 8.25285 0.490977
352 1 38.3525 24.74 5.91164 0.451276
423 1 40.5705 23.6029 5.14403 0.648035
858 2 40.7358 23.3639 8.18169 0.735482
424 1 42.7255 24.7097 6.49351 0.660759
439 2 6.94001 3.88229 10.7235 0.626277
511 2 11.2461 4.15148 10.9594 0.477429
583 2 15.7756 4.01919 10.8828 0.48991
655 2 20.1238 3.84879 11.0487 0.437333
727 2 24.4129 3.81197 11.0336 1.37377
799 2 42.7555 27.5208 10.7459 0.408711
5 1 8.79369 5.18268 9.25155 0.744636
6 1 11.6084 6.5683 10.4153 1.09479
7 1 11.4226 6.49765 12.9626 0.469975
440 2 9.11008 5.36111 11.8402 0.730898
451 2 9.06382 7.64676 10.9426 0.625249
77 1 13.7493 5.01534 9.32314 0.534167
78 1 15.8121 6.59319 10.15 0.531049
79 1 15.5918 6.36561 12.9148 0.650731
512 2 13.3994 4.88173 12.2664 0.743516
523 2 13.8614 7.75139 11.2776 0.73319
149 1 18.1163 5.28115 9.05514 0.379735
150 1 20.4503 6.77848 9.87598 0.567247
151 1 20.1244 6.66309 12.8968 0.577801
584 2 17.9715 5.50597 11.7093 0.725205
595 2 18.2351 7.96466 11.1908 0.709697
221 1 22.5235 5.27489 8.85742 0.349552
222 1 24.919 6.15037 9.96961 0.521062
223 1 24.7023 6.38773 12.6018 0.469413
656 2 22.1494 5.18972 11.8231 0.62939
667 2 22.6177 8.13591 11.4152 0.647983
293 1 27.1059 4.88372 9.02248 0.708843
728 2 26.9048 5.21993 11.7052 0.443793
739 2 26.742 7.56015 10.9107 0.606102
294 1 29.2219 6.53403 10.1897 0.565272
295 1 29.2537 6.376 12.8272 0.51704
365 1 31.5548 5.11295 9.23531 0.688519
800 2 31.2789 4.98392 11.8125 0.578246
811 2 31.8041 7.67579 11.1271 0.501944
366 1 33.9587 6.50898 10.0491 0.506478
367 1 33.8353 6.49051 12.8375 0.468629
17 1 11.133 8.97046 9.19458 0.614966
452 2 11.3873 8.83994 12.1203 0.509473
463 2 11.3461 11.8657 10.8118 0.571471
18 1 13.4347 10.0915 10.0656 0.715792
19 1 13.4426 10.4735 12.7949 0.497487
29 1 13.5381 12.9187 9.34748 0.735716
89 1 15.764 9.00633 9.11485 0.607792
464 2 13.5005 13.1436 12.0789 0.409025
524 2 15.8916 8.72957 12.0741 0.640379
535 2 15.4797 11.3201 10.8446 0.840497
90 1 18.0466 10.4354 9.97695 0.801061
91 1 17.7862 10.3483 12.8652 0.503609
101 1 18.0509 13.2382 9.1581 0.705382
161 1 20.2276 9.39819 9.52732 0.76524
536 2 17.57 12.8849 11.6628 0.608148
596 2 20.3478 9.36695 12.2341 0.572618
607 2 20.4173 11.6432 11.2537 0.515288
162 1 22.5667 10.4883 10.2294 0.464658
163 1 22.8198 10.4881 12.9995 0.449075
173 1 22.2992 12.8466 9.02036 0.482435
233 1 25.0849 9.04776 9.48253 0.737799
608 2 22.4575 13.2477 11.9827 0.712957
668 2 24.998 9.12408 12.3652 0.588503
679 2 24.8667 11.776 11.1233 0.529596
234 1 27.1825 10.5345 10.1554 0.579354
235 1 27.289 10.5784 12.9505 0.468538
245 1 27.0059 12.9633 9.07607 0.352633
680 2 27.3462 13.1224 11.9349 0.741133
305 1 29.2155 9.15245 9.17155 0.630913
306 1 31.6538 10.5555 9.98935 0.321078
307 1 31.7416 10.3918 12.817 0.386455
317 1 31.6192 13.1931 9.15389 0.482922
740 2 29.4943 9.11295 11.8697 0.50282
751 2 29.5972 11.6272 10.8748 0.483781
752 2 31.7685 12.9429 12.0867 0.356146
377 1 33.8695 9.34977 9.13351 0.545592
378 1 36.3099 10.2999 10.0213 0.586862
379 1 36.0444 10.3559 12.9204 0.635031
389 1 36.274 13.029 9.19149 0.500121
812 2 34.2816 8.95366 11.6378 0.554597
823 2 33.9744 11.4608 11.1778 0.458902
824 2 36.1849 12.7638 12.1814 0.517345
30 1 15.586 14.3327 10.119 0.34609
31 1 15.6021 14.1916 13.0153 0.574827
41 1 15.6898 16.998 9.12517 0.382539
476 2 15.8005 17.0032 11.9501 0.723148
102 1 20.3046 14.3911 9.96631 0.421555
103 1 19.957 13.9987 12.6402 0.574513
113 1 20.3615 16.8689 9.07268 0.417364
547 2 17.7507 15.6526 11.025 0.384399
548 2 20.2584 16.7403 11.7618 0.556551
174 1 24.7902 14.2039 10.1512 0.655306
175 1 25.0987 14.1567 12.904 0.672675
185 1 24.7579 17.0614 9.31234 0.782189
619 2 22.6775 15.951 10.8509 0.90009
620 2 25.1102 16.6926 11.8956 0.585355
691 2 27.1643 15.4983 10.8673 0.458981
246 1 29.3603 14.297 10.1102 0.545758
247 1 29.2817 14.2775 12.7697 0.72692
257 1 29.091 16.8103 9.13109 0.553011
692 2 29.3306 16.7665 11.5895 0.436266
763 2 31.7236 15.6365 10.9193 0.636221
318 1 33.942 14.1526 10.08 0.653377
319 1 33.936 14.2558 12.7245 0.544944
329 1 33.766 16.7125 9.25563 0.597186
764 2 33.821 17.183 12.0694 0.540878
835 2 35.8831 15.6753 11.0779 0.458385
390 1 38.2974 14.5125 10.0658 0.396298
391 1 38.344 14.577 12.7265 0.635083
401 1 38.4775 16.9697 9.07966 1.08219
475 2 40.7153 15.6349 11.2523 0.4609
836 2 38.3915 17.0136 11.6233 0.665549
42 1 18.0424 18.1775 10.0488 0.411032
43 1 18.1613 18.0267 12.9074 0.863422
53 1 18.2791 20.635 9.35663 0.596388
54 1 20.2464 22.2277 10.1007 0.501045
55 1 20.3463 22.2523 13.1928 0.829027
488 2 18.1034 21.1813 12.1194 0.528551
559 2 20.2165 19.0538 10.9571 0.631428
114 1 22.689 18.4484 10.137 0.635889
115 1 22.2732 18.0594 12.8394 0.756283
125 1 22.5387 21.0826 9.25421 0.465537
126 1 24.7152 22.6241 10.2737 0.713384
127 1 24.8021 22.1543 13.0226 0.694502
560 2 22.2476 20.476 11.934 0.683623
631 2 24.6533 19.2701 11.222 1.8288
186 1 26.8646 18.3189 10.0874 0.505862
187 1 27.0641 18.2894 13.0018 0.581377
197 1 27.1448 20.8334 9.15163 0.601862
632 2 27.1929 20.8637 11.9439 0.634154
198 1 29.3355 22.1505 9.981 0.474933
199 1 29.4906 22.4225 12.9153 0.491842
258 1 31.4643 18.1912 9.86454 0.505411
259 1 31.5321 18.2658 12.7468 0.674204
269 1 31.4708 20.7247 8.82432 0.493082
703 2 29.4305 19.3396 10.9268 0.325503
704 2 31.6939 20.7645 11.7422 0.466265
270 1 33.8248 22.112 10.0033 0.437575
271 1 33.976 22.1463 12.8259 0.538275
330 1 36.1432 18.1823 9.77756 0.34453
331 1 36.1626 18.2375 12.7323 0.623518
341 1 36.0851 20.7661 8.98305 0.527027
775 2 34.0764 19.5594 10.9909 0.691029
776 2 36.1787 20.8763 11.8716 0.544847
342 1 38.5101 22.2111 9.91448 0.444182
343 1 38.5536 22.225 12.9343 0.549521
402 1 40.7985 18.4663 9.96965 0.486796
403 1 40.5111 18.3811 12.8235 0.586089
413 1 40.569 20.8978 9.05848 0.406005
847 2 38.59 19.5512 10.8961 0.535917
848 2 40.6863 21.0201 11.9719 0.443898
414 1 42.7868 21.9935 10.2309 0.508661
415 1 42.8676 21.8857 12.9523 0.494804
487 2 15.7215 19.6275 11.2313 0.427058
65 1 20.4071 24.8561 9.20495 0.436672
500 2 20.1145 24.6318 11.9574 0.434514
66 1 22.6921 26.2399 10.1369 0.872695
67 1 22.6379 26.2119 12.9061 0.798431
137 1 25.1754 24.9468 9.0911 0.746732
571 2 22.3488 23.0998 11.3332 1.01519
572 2 24.8114 25.173 11.5036 0.953959
138 1 27.0893 26.2277 10.3792 0.487254
139 1 27.1561 25.9046 12.9481 0.685322
643 2 27.0604 23.4715 10.7077 0.505523
209 1 29.2467 24.8208 8.9463 0.464653
210 1 31.7027 26.0352 9.95582 0.476092
211 1 31.7679 26.1717 12.7194 0.373796
644 2 29.4047 24.803 11.763 0.429978
715 2 31.5163 23.4136 11.1467 0.443248
281 1 34.0061 24.7585 9.29373 0.79806
282 1 36.194 26.059 9.86194 0.354355
283 1 36.1872 26.2725 12.5457 0.588631
716 2 33.984 24.9354 12.0343 0.477737
787 2 36.3625 23.7295 11.1144 0.385951
353 1 38.4941 24.6958 8.93672 0.453526
354 1 40.8162 25.9156 9.64041 0.592785
355 1 40.8928 25.9986 12.5387 0.754699
788 2 38.5006 24.7378 11.9727 0.487276
859 2 40.7206 23.4083 10.8981 0.686313
425 1 43.0048 24.6002 9.07935 0.503033
426 1 45.0618 26.1694 10.126 0.314888
427 1 45.36 25.9945 12.7586 0.482757
499 2 45.0959 23.4423 11.0227 0.99005
860 2 42.9991 24.6464 11.9984 0.428071
441 2 36.2665 5.47781 14.911 0.399364
442 2 11.155 6.46592 15.9697 0.608059
8 1 13.5253 7.75408 13.8534 0.42494
9 1 13.3718 7.753 16.4345 0.610915
513 2 27.1143 28.7003 15.0018 0.480864
514 2 15.9577 6.63792 15.8562 0.940164
80 1 17.9522 7.64308 13.8298 0.53783
81 1 17.8535 7.9766 16.6625 0.565818
585 2 31.583 28.4944 14.4881 0.447909
586 2 19.9651 6.50941 15.5193 0.575439
152 1 22.664 7.98777 13.908 0.655521
153 1 22.6153 7.59694 16.3284 0.551798
657 2 22.4279 5.27383 14.8282 0.545333
658 2 24.9411 6.77437 15.3696 1.05562
224 1 27.1075 7.69186 13.7375 0.526124
225 1 27.0516 7.66561 16.3757 0.624442
729 2 40.4665 28.9023 14.9688 0.541056
296 1 31.9171 7.88027 13.7246 0.604571
297 1 31.5075 7.88651 16.7728 0.614267
730 2 29.5739 6.58276 15.4606 0.392997
801 2 31.7126 5.25836 14.3961 0.602716
368 1 36.2521 7.79141 13.7442 0.37075
369 1 36.0138 7.93294 16.419 0.657754
802 2 34.02 6.41462 15.4762 0.548907
453 2 38.6365 8.78353 14.9033 0.443475
10 1 15.5626 9.02258 17.4115 0.367037
20 1 15.7049 11.569 13.8022 0.445034
21 1 15.7208 11.6217 16.5305 0.834863
454 2 13.4285 10.4104 15.4525 0.583758
525 2 15.6593 8.84456 14.4346 0.49666
22 1 18.0373 12.9464 17.4976 0.598954
82 1 20.2093 9.16047 17.628 0.447346
92 1 20.2617 11.7445 13.9374 0.542246
93 1 20.2163 11.747 16.6065 0.834404
526 2 17.9955 10.246 15.6648 0.55957
537 2 18.0225 12.6855 14.5383 0.628047
597 2 20.3194 9.07111 14.8594 0.824605
94 1 22.4025 12.742 17.4223 0.663414
154 1 24.7016 8.7321 17.6294 0.773407
164 1 24.7041 11.8953 13.9069 0.471072
165 1 24.8094 11.4451 16.6431 0.724043
598 2 22.315 10.6386 15.6194 0.827927
609 2 22.8149 13.4248 14.7908 0.956496
669 2 25.2251 9.06269 14.9626 0.738854
166 1 26.848 12.9168 17.4182 0.500549
670 2 27.167 10.3726 15.8481 0.605814
681 2 27.0143 12.7991 14.7962 0.548597
226 1 29.1664 8.98239 17.1847 0.741737
236 1 29.4178 11.686 13.6739 0.336454
237 1 29.268 11.8026 16.3529 0.484044
238 1 31.6374 13.1589 17.3642 0.597662
741 2 29.5936 8.84536 14.4993 0.563742
742 2 31.7018 10.4769 15.6589 0.55474
753 2 31.2917 12.9099 14.8977 0.632564
298 1 33.7347 9.11688 17.5938 0.58466
308 1 33.9945 11.8754 13.747 0.509545
309 1 33.9024 11.7745 16.6003 0.404863
310 1 36.2596 13.0701 17.4516 0.495016
813 2 33.816 9.36498 14.7912 0.381007
814 2 36.1785 10.507 15.7496 0.690958
825 2 36.5388 13.1973 14.7583 0.55564
370 1 38.5656 9.05927 17.5031 0.346005
380 1 38.5029 11.738 13.7153 0.536116
381 1 38.463 11.6542 16.6047 0.334121
382 1 40.5895 12.9597 17.3799 0.375238
465 2 13.3825 12.6005 14.6802 0.669096
466 2 15.5943 14.1453 15.6608 0.522814
32 1 17.844 15.5253 13.797 0.409762
33 1 18.0093 15.635 16.6123 0.646477
34 1 20.0772 17.0577 17.4755 0.47042
538 2 20.1411 14.3289 15.3796 0.682857
549 2 20.175 16.9205 14.3054 0.680549
104 1 22.4902 15.5425 13.3578 0.926132
105 1 22.6703 15.4105 16.3051 0.930502
106 1 24.8357 16.9185 17.602 0.421015
610 2 25.0385 14.3569 15.612 0.59405
621 2 24.7961 16.8947 14.9378 0.5272
176 1 27.0635 15.508 13.6087 0.601502
177 1 27.0962 15.5653 16.4292 0.505325
178 1 29.4575 16.7853 17.3061 0.518754
248 1 31.6908 15.4642 13.7388 0.45757
249 1 31.6573 15.8077 16.553 0.542503
682 2 29.1846 14.5307 15.4682 0.487514
693 2 29.4572 16.9196 14.4118 0.586256
250 1 33.8661 17.0678 17.2855 0.410863
320 1 35.9651 15.682 13.821 0.511834
321 1 36.3854 15.605 16.5015 0.52838
754 2 33.8497 14.5568 15.5115 0.384117
765 2 33.8544 17.1241 14.5166 0.549222
322 1 38.4458 17.0374 17.6428 0.555499
392 1 40.8006 15.585 13.9904 0.61139
393 1 40.6547 15.809 16.7433 0.550675
826 2 38.8147 14.3445 15.3256 0.593356
837 2 38.4163 16.9354 14.3824 0.567495
394 1 42.8849 16.752 17.8883 0.68652
477 2 16.0338 17.0773 15.3388 0.850825
44 1 20.1655 19.5644 13.7496 0.356024
45 1 20.3332 19.4807 16.7411 0.656286
478 2 17.835 18.3946 16.4137 1.35856
490 2 20.0919 21.8453 15.6797 0.672375
46 1 22.3953 20.8464 17.6226 0.537557
116 1 24.7604 19.5814 13.7374 0.409524
117 1 24.8369 19.3901 16.8056 0.572524
550 2 22.3763 18.1966 15.893 0.615915
561 2 22.5357 20.5695 14.6796 0.413627
562 2 24.7173 21.7674 15.6561 0.350021
118 1 26.9626 20.6638 17.4892 0.818383
622 2 27.0497 18.4123 15.6292 0.322154
633 2 27.0907 20.9169 14.9038 0.603346
188 1 29.4902 19.6189 13.6869 0.723234
189 1 29.3463 19.4129 16.8772 0.662946
190 1 31.6589 20.8915 17.3934 0.511719
634 2 29.3449 21.896 15.6674 0.483225
694 2 31.6696 18.2356 15.6768 0.354444
705 2 31.743 20.7994 14.3336 0.431868
260 1 34.0757 19.7038 13.8077 0.77708
261 1 34.0537 19.6156 16.455 0.565979
262 1 36.1509 20.8988 17.4314 0.85887
706 2 33.8459 22.2598 15.6044 0.590842
766 2 36.0555 18.0419 15.4258 0.393352
777 2 36.0365 20.9009 14.9671 0.671218
332 1 38.3358 19.6004 13.8098 0.609032
333 1 38.4258 19.648 16.7461 0.479171
334 1 40.9031 20.856 17.5507 0.543924
778 2 38.3452 22.0945 15.6463 0.494765
838 2 40.6515 18.0716 15.3278 0.798525
849 2 40.8442 20.7254 14.5122 0.435413
404 1 43.0291 19.4809 14.0668 0.745796
405 1 42.7611 19.3131 16.6667 0.794272
406 1 45.2153 20.6272 17.6158 0.451338
489 2 45.2025 20.7918 14.9635 0.784775
850 2 43.058 22.5102 16.0267 0.637202
56 1 22.5268 23.295 14.0446 0.671689
57 1 22.419 23.6682 16.6946 0.658714
58 1 24.8967 24.7815 17.3239 0.675272
502 2 22.5651 26.4465 15.2373 0.813482
573 2 24.8582 24.52 14.6376 0.727483
128 1 27.0051 23.3362 13.7897 0.899202
129 1 27.0409 23.501 16.3736 0.437564
574 2 27.2588 26.0508 15.7631 0.382323
130 1 29.1944 24.8405 17.421 0.885785
200 1 31.7568 23.5766 13.7418 0.362942
201 1 31.599 23.5026 16.6144 1.26895
645 2 29.1791 24.7693 14.6615 0.636736
646 2 31.4933 25.913 15.4477 0.445174
202 1 33.9847 24.9076 17.3723 0.406676
272 1 36.2842 23.3126 13.8853 0.609797
273 1 36.0755 23.5967 16.4856 0.651505
717 2 34.083 24.7319 14.6255 0.393274
718 2 36.2898 26.0431 15.7738 0.794254
274 1 38.4232 24.6251 17.7548 0.613657
344 1 40.8793 23.7255 13.7705 0.508489
345 1 40.6689 23.2993 16.4748 0.595111
789 2 38.4728 24.5694 14.8659 0.725996
790 2 40.4954 26.3873 15.292 0.856941
346 1 43.1921 24.6526 17.6904 0.590236
416 1 45.1068 23.4499 13.8142 0.434805
417 1 45.4074 23.475 16.6605 0.597598
861 2 42.897 24.8512 15.0472 0.474584
862 2 45.3808 25.9958 15.7603 0.419972
418 1 47.4499 24.8877 17.5253 0.566005
501 2 20.064 24.4884 14.7458 0.417922
68 1 24.9742 27.2894 13.7782 0.478474
69 1 24.9092 27.56 16.5625 0.442792
70 1 27.1545 28.8732 17.6411 0.414256
140 1 29.2928 27.362 13.7513 0.474961
141 1 29.3284 27.4425 16.7463 0.565724
142 1 31.627 28.8612 17.5512 0.445167
212 1 33.8914 27.5121 13.6504 0.700579
213 1 33.9209 27.7339 16.3935 0.4733
214 1 36.2028 28.7577 17.4181 0.853443
284 1 38.6626 27.3706 13.6318 0.738337
285 1 38.6198 27.4797 16.5289 0.468056
286 1 40.8173 28.708 17.5102 0.542653
356 1 42.9202 27.3962 13.8858 0.611624
357 1 43.183 27.4977 16.5477 0.484514
358 1 45.1735 28.8762 17.372 0.441551
428 1 47.6171 27.2954 13.8772 0.568683
429 1 47.5608 27.4101 16.4904 0.458051
430 1 49.8999 28.8655 17.526 0.793354
443 2 24.867 29.982 18.6729 0.570344
444 2 13.5358 7.75401 19.0968 0.328968
515 2 15.8264 6.45974 18.2746 0.329423
516 2 18.1429 7.59384 19.4904 0.551615
587 2 20.3863 6.5389 18.3682 0.437801
588 2 22.7916 7.83464 19.5569 0.681192
659 2 24.9543 6.19354 17.9139 1.06855
660 2 27.0134 7.64071 19.1135 0.433845
721 2 31.8927 23.3967 -0.107569 0.624158
731 2 43.2509 30.4098 18.5378 0.606744
732 2 31.8694 7.6985 19.7477 0.74076
793 2 36.0796 7.53441 22.1581 0.39276
803 2 34.0839 6.49382 18.5783 0.513764
804 2 36.4259 7.56418 19.4176 0.424344
11 1 15.9357 8.89172 20.3029 0.541875
455 2 40.7966 10.4482 18.4059 0.508832
456 2 15.7043 11.7024 19.1595 0.549296
12 1 18.2348 10.1459 21.2772 0.405745
23 1 17.9058 12.8313 20.2379 0.569043
83 1 20.3874 8.90941 20.2873 0.454576
527 2 17.9866 10.032 18.5484 0.412671
528 2 20.1229 11.4866 19.5929 0.620367
84 1 22.646 10.3158 21.1857 0.492726
95 1 22.3347 12.8624 20.2752 0.370943
155 1 24.8483 9.06634 20.8173 0.957422
599 2 22.7171 10.4207 18.8073 0.503481
600 2 24.959 11.3432 19.8077 0.891638
156 1 27.1983 10.4655 21.2497 0.519353
167 1 26.9264 12.7164 20.1465 0.663775
671 2 26.7344 10.3547 18.453 0.864282
227 1 29.3556 9.02885 20.2766 0.534535
228 1 31.8188 10.3323 21.1705 0.445619
239 1 31.4467 12.8625 20.152 0.497758
672 2 29.1048 11.4563 18.9399 0.614086
743 2 31.4189 10.0544 18.5904 0.495653
299 1 34.1022 9.00149 20.206 0.337852
300 1 36.3986 10.349 21.0717 0.433644
311 1 36.2672 12.9272 20.0296 0.385235
733 2 34.2319 11.8059 21.9752 0.38642
744 2 33.7942 12.0435 19.3326 0.524385
815 2 36.1308 10.37 18.3124 0.556934
371 1 38.4867 8.99137 20.1536 0.385755
372 1 40.744 10.5036 21.087 0.59513
383 1 40.7081 13.0527 20.2419 0.376419
805 2 38.4282 11.8024 22.0218 0.451384
816 2 38.5542 11.8934 19.2492 0.355286
24 1 20.0015 14.3581 21.255 0.404268
35 1 20.2534 16.7902 20.3886 0.357385
468 2 17.9433 15.6047 19.8297 0.454285
539 2 20.3825 14.3943 18.3428 0.569984
96 1 24.8517 13.9625 21.0369 0.516091
107 1 24.8581 16.5152 20.1906 0.372252
540 2 22.8481 15.4833 19.3847 0.868235
611 2 24.8128 14.0333 18.2967 0.546379
612 2 27.1419 15.3524 19.3747 0.392804
168 1 29.2605 14.1291 21.0535 0.668251
179 1 29.5567 16.7482 20.2472 0.499834
683 2 29.4424 14.2844 18.359 0.448928
684 2 31.9928 15.5797 19.3928 0.385714
240 1 34.0476 14.3574 21.1222 0.526726
251 1 34.1797 16.7613 20.1015 0.628375
745 2 35.9776 15.7429 22.0419 0.566844
755 2 34.1064 14.3217 18.179 0.630458
756 2 36.3524 15.586 19.0371 0.438293
312 1 38.6147 14.4141 21.1022 0.442346
323 1 38.4609 17.0963 20.4838 0.608382
817 2 26.8045 7.88112 -0.237807 0.664755
827 2 38.7105 14.3818 18.1829 0.566097
828 2 40.6181 15.6848 19.2815 0.560568
384 1 42.6541 14.3677 21.4937 0.47121
395 1 42.9662 16.9151 20.6203 0.546097
467 2 43.1143 14.3995 18.7455 0.368012
480 2 20.3088 19.5634 19.4699 0.48914
36 1 22.7305 17.994 21.3896 0.434253
47 1 22.606 20.6979 20.3743 0.883858
48 1 24.8503 21.9683 21.2143 0.555054
551 2 22.3795 18.0583 18.4875 0.451262
552 2 24.6775 19.3597 19.4326 0.509643
563 2 24.9818 21.9781 18.3869 0.491997
108 1 27.2993 17.7877 21.17 0.587793
119 1 26.9285 20.5419 20.3234 0.563918
623 2 27.352 18.1947 18.4241 0.487089
120 1 29.0571 22.1468 21.3711 0.610681
180 1 31.8864 18.0763 21.1266 0.588196
191 1 31.7225 21.043 20.105 0.527257
624 2 29.2827 19.5335 19.4889 0.676844
635 2 29.044 21.7687 18.7664 0.509415
695 2 31.6291 18.1105 18.3095 0.764404
192 1 33.7142 22.5454 21.2846 0.619423
252 1 36.131 18.325 21.284 1.04668
263 1 36.0172 20.8814 20.3291 0.444488
696 2 33.4951 19.316 19.2625 0.617336
707 2 33.8797 22.2834 18.5647 0.416563
767 2 36.1632 18.3155 18.1019 0.361503
264 1 38.63 22.1856 21.2844 0.396153
324 1 40.8161 18.2899 21.3466 0.402334
335 1 40.7335 20.8484 20.4574 0.47712
757 2 24.6796 11.8548 0.084153 0.438032
768 2 38.3461 19.4533 19.2495 0.433496
779 2 38.8123 21.8452 18.6531 0.744594
839 2 40.6354 18.1093 18.5278 0.314345
336 1 43.0586 22.0555 21.1736 0.347496
396 1 45.4534 18.2388 21.5734 0.43145
407 1 45.3233 20.8044 20.5587 0.657008
479 2 45.2139 17.9649 18.8509 0.583206
829 2 29.3597 11.5823 0.20186 0.363291
840 2 42.994 19.4025 19.5165 0.45797
851 2 43.1862 22.3595 18.6446 0.417668
408 1 47.6531 22.1518 21.2224 0.397263
491 2 47.4294 22.1572 18.2635 0.494156
59 1 24.9113 24.7138 20.1294 0.603868
492 2 22.6949 23.3051 19.4456 0.579217
503 2 22.7647 26.4583 18.1661 0.528847
60 1 27.3074 26.3065 21.2521 0.39373
564 2 26.9642 23.4635 19.2962 0.660735
575 2 27.0657 26.0846 18.557 0.560124
131 1 29.2398 24.6492 20.418 0.518129
132 1 31.6667 26.3166 21.2609 0.78297
636 2 31.6567 23.9221 19.2777 0.730602
647 2 32.0246 26.3919 18.1328 0.6107
203 1 33.77 25.198 20.2329 0.496821
204 1 36.3241 26.2201 21.5056 0.450705
708 2 36.1727 23.4682 19.3664 0.680423
719 2 36.1197 26.1878 18.0821 0.756017
275 1 38.569 24.9597 20.5325 0.616336
276 1 40.8972 26.2048 21.168 0.426809
769 2 40.8103 23.4419 22.4688 0.507292
780 2 40.9783 23.5095 19.646 0.454836
791 2 40.9587 26.1207 18.4401 0.70695
347 1 43.3273 24.908 20.4357 0.394655
348 1 45.4335 26.051 21.3084 0.420029
841 2 45.2842 23.1986 22.1391 0.327119
852 2 45.3983 23.2745 19.3734 0.691845
863 2 45.54 26.3298 18.3562 0.460859
419 1 47.4905 24.6408 20.2355 0.539014
420 1 49.7899 25.9863 21.064 0.410945
504 2 25.0487 27.2855 19.1222 0.458037
71 1 26.9555 28.6484 20.4266 0.559058
72 1 29.2725 30.0394 21.1323 0.550616
143 1 31.7772 28.6914 20.2619 0.347862
576 2 29.3053 27.4315 19.3769 0.516121
144 1 33.9951 29.9441 21.2219 0.49681
215 1 36.152 28.8565 20.177 0.705755
648 2 34.1148 27.537 19.0001 0.511275
216 1 38.4318 30.1157 20.993 1.04099
287 1 40.6744 28.778 20.2483 0.610833
720 2 38.139 27.527 19.3868 0.506065
288 1 43.0251 30.1205 21.2145 0.386934
359 1 45.4889 28.7973 20.3345 0.348704
781 2 29.6464 19.3254 -0.350843 0.399084
792 2 43.3191 27.5709 19.1528 0.504607
360 1 47.6705 29.9493 21.1864 0.59658
431 1 50.0369 28.6576 20.3592 0.610469
853 2 47.8821 27.3659 22.0391 0.503999
864 2 47.8768 27.1756 19.2419 0.513752
432 1 52.2195 30.3058 21.1797 0.426128
ITEM: TIMESTEP
150
ITEM: NUMBER OF ATOMS
864
ITEM: BOX BOUNDS xy xz yz pp pp pp
-2.0223507560546577e-01 5.4545548716992499e+01 1.3694856467731142e+01
-1.8826984198626398e-01 3.1437883373506480e+01 1.3693534813997896e+01
-1.7642338352752349e-01 2.2185025329360592e+01 7.9059660110192018e+00
ITEM: ATOMS id type x y z f_grace_gamma
433 2 13.5439 23.3528 0.0454548 0.797177
434 2 2.46986 1.10266 0.645876 0.584417
435 2 2.25657 1.32005 3.38975 0.677047
445 2 15.6558 11.5039 21.872 0.664534
1 1 4.4565 2.63451 1.89601 0.589235
2 1 6.79604 3.49482 2.62215 0.670787
505 2 32.1188 31.3568 22.156 0.777428
506 2 6.69555 1.15825 0.79789 0.505856
507 2 6.70265 1.22289 3.78741 0.743184
517 2 6.86504 3.78871 -0.179551 0.434556
73 1 9.05304 2.18782 1.7379 0.402019
74 1 11.4264 3.54114 2.76691 0.474633
577 2 22.6819 23.6199 0.208907 0.461082
578 2 11.548 0.747471 1.36148 0.948352
579 2 25.0524 24.8498 3.79712 0.77871
589 2 11.0061 3.61734 0.0880451 0.553325
145 1 13.505 2.31408 1.8715 0.776318
146 1 15.6939 3.68927 2.75297 0.515424
649 2 27.0494 7.7622 21.9869 0.927108
650 2 15.9779 0.891046 0.927911 0.562072
651 2 15.5906 1.24171 3.42218 0.540891
661 2 29.5724 11.6356 22.0567 0.506761
217 1 18.1201 2.18893 1.57269 0.396352
218 1 20.4329 3.78394 2.31487 0.525541
722 2 20.546 1.14981 0.737336 0.504993
723 2 20.62 1.37969 3.55844 0.48415
289 1 22.8243 2.57516 1.56757 0.606463
290 1 25.1323 3.74898 2.44518 0.609898
794 2 24.8202 1.18628 0.401698 0.418102
795 2 24.8659 1.09649 3.2429 0.47083
361 1 27.337 2.37291 1.50668 0.975844
362 1 29.2762 3.56342 2.53288 0.664554
13 1 6.55506 6.09303 1.85399 0.516626
446 2 4.39048 4.93126 0.638105 0.602416
447 2 31.518 5.09105 3.44879 0.557005
457 2 31.3892 7.46013 0.211061 0.486809
14 1 9.02014 7.51781 2.52572 0.695223
85 1 11.276 6.06935 1.80746 0.922731
518 2 9.17285 4.91553 0.82256 0.913252
519 2 8.85165 4.96276 3.33282 0.456366
529 2 9.01457 7.45143 -0.144073 0.642419
86 1 13.6681 7.42024 2.28432 0.554761
157 1 15.9061 6.26763 1.86716 0.444265
590 2 13.3991 5.00258 0.820638 0.519032
591 2 13.7133 5.16103 4.12718 1.0465
601 2 26.9284 15.259 22.1331 0.583466
158 1 18.024 7.57113 2.59923 0.584734
229 1 20.2928 6.32636 1.49826 0.559113
662 2 17.8766 5.21613 0.48862 0.475802
663 2 18.0687 4.95528 3.45522 0.603322
673 2 18.3765 7.70747 -0.0421928 0.656326
230 1 22.6184 7.74364 2.62777 0.391261
301 1 24.8851 6.48462 1.73424 0.806021
734 2 22.7774 5.1862 0.511861 0.607142
735 2 22.9819 4.88774 3.41036 0.596131
302 1 27.0255 8.03001 2.78314 0.531977
806 2 27.1624 5.36918 0.685904 0.474673
807 2 27.249 5.2662 3.67569 0.559808
373 1 29.5176 6.40935 1.94024 0.65565
374 1 31.8811 7.99385 2.72931 0.827717
458 2 6.77531 8.92057 0.812705 0.603645
25 1 9.14575 10.2299 1.84716 0.539407
26 1 11.4398 11.5666 2.51306 0.507308
470 2 9.35166 12.9034 0.934738 0.561607
471 2 9.40437 12.9354 3.96915 0.806096
530 2 11.1835 8.39865 0.866083 0.516588
531 2 11.2516 8.97716 3.75649 0.582053
541 2 11.3581 11.3555 -0.115008 0.604738
97 1 13.3702 10.0769 1.5968 0.528125
98 1 15.5564 11.3118 2.59312 0.576249
542 2 13.4599 12.9329 0.863499 0.570736
543 2 13.3809 13.0527 3.52329 0.504487
602 2 16.0281 8.81002 0.742183 0.886923
603 2 15.3058 8.80746 3.47153 0.59057
613 2 16.0202 11.6225 -0.164052 0.467067
169 1 18.0302 10.4975 1.28567 0.725919
170 1 20.2578 11.3172 2.39537 0.61235
614 2 17.8219 13.3925 0.60222 0.863578
615 2 17.7451 13.2217 3.59832 0.585609
674 2 20.3342 9.34088 0.679612 0.644187
675 2 20.4009 8.9868 3.50906 0.658567
685 2 34.2946 20.0302 22.0874 0.552347
241 1 22.6085 10.4958 1.65562 0.522518
242 1 24.8437 11.891 2.85414 0.599169
686 2 22.79 13.3509 0.574803 0.606382
687 2 22.6239 13.1354 3.37661 0.510691
746 2 24.7503 8.88015 0.927527 0.562877
747 2 24.5906 9.20349 3.4822 0.555879
313 1 27.034 10.6275 1.76493 0.681602
758 2 27.1147 12.8186 1.01989 0.610621
759 2 27.1343 12.7526 3.58176 0.566397
314 1 29.592 11.6796 2.87603 0.536242
385 1 31.8123 10.3136 1.85175 0.515407
818 2 29.3293 8.8316 1.06184 0.363761
819 2 29.4234 9.27821 3.61188 0.615773
830 2 31.956 13.2417 0.983468 0.710722
831 2 31.779 12.74 3.57196 0.397576
386 1 34.2744 11.7415 2.73864 0.579738
459 2 7.05682 9.22994 3.38928 0.49509
469 2 34.1603 12.0473 0.219324 0.494705
37 1 11.0994 14.4899 1.75762 0.572297
482 2 11.3674 17.2801 0.912507 0.53802
38 1 13.4275 15.5498 2.38766 0.853172
109 1 15.5758 14.1787 1.86654 0.622165
553 2 26.8324 23.4999 21.9717 0.550317
554 2 15.4936 16.6308 1.09435 0.669996
555 2 15.4967 16.7126 3.7283 0.618751
110 1 17.9291 15.8662 2.63763 0.424189
181 1 20.1545 14.1356 1.76795 0.609502
625 2 31.5584 23.6403 22.1524 0.629837
626 2 20.4459 16.9297 0.714933 0.65937
627 2 20.2919 16.6493 3.25808 0.600634
182 1 22.4452 15.4599 2.58437 0.906988
253 1 24.9242 14.4812 1.68585 0.435344
697 2 22.6715 15.826 -0.158691 0.66988
698 2 25.0092 16.9877 0.711001 0.543565
699 2 24.6848 16.6881 3.65838 0.913659
254 1 27.3418 15.4175 2.73757 0.661401
325 1 29.8024 14.3969 1.49251 0.667921
326 1 31.9333 15.5581 2.4865 0.736788
770 2 29.171 16.9107 0.863337 0.642837
771 2 29.7645 16.8387 3.44892 0.527334
397 1 34.3137 14.4199 1.63814 0.809889
398 1 36.4648 15.8434 2.45813 0.592884
481 2 22.9702 23.5235 22.0017 0.709472
842 2 34.1545 16.8698 0.322185 1.2991
843 2 33.9093 16.8368 3.42169 0.507416
483 2 38.6616 17.1874 3.76037 0.621093
493 2 52.0461 27.4036 22.0509 0.400456
49 1 13.6221 18.2964 1.65847 0.653049
50 1 15.7694 19.5582 2.61374 0.565542
61 1 15.8309 22.1915 1.85532 0.628993
494 2 13.4511 21.0643 1.2258 0.532281
495 2 40.8904 21.4391 3.41958 0.950576
565 2 15.6338 19.479 -0.0904389 0.765745
121 1 18.1579 18.3241 1.7474 0.535237
122 1 20.2312 19.648 2.71476 0.581139
133 1 20.3148 22.0093 1.55313 0.376321
566 2 18.0002 20.9094 0.629737 0.516368
567 2 17.9412 20.8986 3.62736 0.67271
637 2 34.0408 27.4552 21.9755 0.444765
193 1 22.6949 18.1734 1.85454 0.691026
194 1 24.8319 19.299 2.79531 0.633231
205 1 24.7582 21.9059 1.83705 0.870123
638 2 22.61 20.4946 1.016 0.582677
639 2 22.6879 21.1091 3.88236 0.407272
709 2 38.4623 27.512 22.089 0.528724
265 1 26.997 18.339 1.83182 0.617384
710 2 27.4208 21.0144 0.697907 0.431796
711 2 27.2644 20.8422 3.42791 0.629728
266 1 29.46 19.3946 2.65485 0.672277
277 1 29.8553 22.0772 1.60595 0.611434
337 1 31.6529 18.143 1.59463 0.455386
782 2 32.0197 20.7669 0.481028 0.583591
783 2 32.0693 20.8798 3.36621 0.416886
338 1 34.1171 19.3051 2.26491 0.526556
349 1 34.1049 22.1379 1.60486 0.387309
409 1 36.428 18.2821 1.53716 0.629883
854 2 36.3984 20.8916 0.731259 0.545382
855 2 36.2018 21.1214 3.4609 0.350059
410 1 38.7506 19.6583 2.61855 0.69457
421 1 38.5859 22.4826 1.51624 0.716246
62 1 18.0741 23.3463 2.49029 0.82996
134 1 22.8383 23.3974 2.77733 0.55164
206 1 27.4098 23.2757 2.34313 0.756139
278 1 31.9684 23.5579 2.56667 0.39041
350 1 36.3058 23.4895 2.62509 0.646271
422 1 41.1502 23.8815 2.62827 0.908333
3 1 6.76764 3.68512 5.52165 0.464928
436 2 4.63828 2.3864 4.63624 0.757458
437 2 18.5627 26.2399 7.52093 1.09115
438 2 6.6857 4.19048 8.11083 1.03865
75 1 11.3958 3.69812 5.47027 0.401854
508 2 8.98917 2.12028 4.46185 0.521654
509 2 9.10785 2.63745 7.11257 0.625936
510 2 11.027 3.87844 8.25394 0.410989
147 1 15.9019 3.44842 5.44526 0.626598
580 2 13.5421 2.02296 4.77242 0.68486
581 2 13.524 2.7817 7.39068 0.453085
582 2 15.9775 3.48068 8.24364 0.506012
219 1 20.3714 3.82563 5.25096 0.676381
652 2 18.1782 2.30344 4.41776 0.548102
653 2 31.944 25.9093 7.20738 0.465273
654 2 20.6852 3.67043 8.41173 0.765064
291 1 25.0207 3.91204 5.17382 0.624651
724 2 22.7231 2.53146 4.31588 0.888212
725 2 36.1528 26.0126 6.93877 0.713993
726 2 25.0505 3.4938 7.93349 0.565116
796 2 26.8099 2.61864 4.42841 0.839982
797 2 27.02 2.5741 6.88307 0.972214
363 1 29.6842 3.64151 5.27289 0.814723
798 2 29.3357 3.38249 7.99779 0.41593
448 2 6.52319 6.68247 4.54379 0.395078
449 2 6.80766 6.52512 7.0447 0.922221
4 1 8.92907 5.19081 6.29098 0.723137
15 1 8.76406 7.83888 5.34258 0.558686
450 2 8.60458 7.97576 8.27497 0.496564
520 2 11.1267 6.5208 4.55932 0.673619
521 2 11.1613 6.35594 7.19387 0.478616
76 1 13.5467 5.19817 6.57156 0.638884
87 1 13.5621 7.53187 5.43996 0.621353
522 2 13.2453 7.7225 8.4344 0.478776
592 2 15.6904 6.31205 4.80527 0.688849
593 2 15.8011 6.54806 7.32857 0.536966
148 1 18.0047 4.97452 6.40609 0.627912
159 1 18.0374 7.5716 5.18732 0.438406
594 2 18.2465 8.08203 8.26419 0.773147
664 2 20.4629 6.52923 4.26434 0.507318
665 2 20.3796 6.22579 6.98549 0.648163
220 1 22.5634 5.04028 6.14324 0.72842
231 1 22.5816 7.80633 5.52164 0.398192
666 2 22.708 8.07154 8.58034 1.35082
736 2 25.0061 6.58603 4.46783 0.551361
737 2 24.8736 6.0895 7.03729 0.644201
292 1 27.4004 5.11937 6.1962 0.674356
303 1 27.239 7.86185 5.68499 0.586954
738 2 26.8055 7.67794 8.14265 0.624612
364 1 31.5998 4.92997 6.3372 0.487695
375 1 31.8124 7.9051 5.685 0.754149
808 2 29.6938 6.40416 4.81017 0.647142
809 2 29.2228 6.24793 7.54252 0.706563
810 2 31.6298 8.01951 8.33949 0.666852
16 1 11.302 8.874 6.31933 0.518752
27 1 11.3673 11.7195 5.25436 0.688582
460 2 9.26028 10.5579 4.68412 0.658552
462 2 10.8394 11.3518 7.77924 1.05792
28 1 13.4087 13.1067 6.75516 0.609157
88 1 15.7216 9.04853 6.33474 0.658325
99 1 15.7666 11.5455 5.24052 0.425578
532 2 13.3242 10.2631 4.28574 0.751167
533 2 13.3727 10.3843 6.85191 0.52861
534 2 15.9758 11.7498 7.8761 0.473386
100 1 17.857 13.1397 6.24105 0.419859
160 1 20.2863 8.91191 5.99935 0.732338
171 1 20.1526 11.8956 5.24115 0.751638
604 2 17.8841 10.2433 3.7842 1.17716
605 2 18.226 10.2268 6.86473 0.66
606 2 20.1372 11.2745 7.98432 0.650666
172 1 22.4285 12.8172 6.22375 0.419073
232 1 24.8555 8.98707 6.67078 0.633585
243 1 24.831 11.5174 5.59851 0.943568
676 2 22.3625 10.2489 4.24141 0.359998
677 2 22.4997 10.0418 7.41587 0.849719
678 2 24.5281 11.4339 8.45622 0.575478
244 1 27.0867 12.8433 6.37371 0.425331
748 2 26.9967 10.3953 4.39515 0.622051
749 2 27.0571 10.4055 7.80304 0.911809
304 1 29.3568 9.14087 6.69077 0.742667
315 1 29.3824 11.5455 5.51496 0.759674
316 1 31.4263 13.2438 6.45347 0.745123
750 2 29.4206 12.1675 8.17366 0.928132
820 2 31.8924 10.4125 4.72564 0.670974
821 2 31.8276 10.5803 7.55505 0.546107
376 1 34.1107 8.92876 6.3756 0.516136
387 1 34.2758 11.816 5.54023 0.628381
388 1 36.2361 13.0498 6.43185 0.769294
461 2 36.0113 10.7998 7.59248 1.29783
822 2 33.7874 12.1377 8.56142 0.967737
472 2 11.5275 14.5779 4.70716 0.575854
39 1 13.5313 15.8204 5.42804 0.495704
40 1 15.7598 17.0484 6.30678 0.496158
474 2 13.3117 15.5507 8.1235 0.485122
544 2 15.5289 14.1199 4.43764 0.681922
545 2 15.8345 14.4876 7.37871 0.67456
111 1 17.812 15.6816 5.42116 0.599527
112 1 20.3093 16.8953 6.38818 0.692911
546 2 17.9698 15.6825 8.23526 0.5795
616 2 20.0849 14.1086 4.58987 0.63534
617 2 20.5299 14.3559 7.3526 0.522749
183 1 22.3306 15.5814 5.18016 0.602155
184 1 24.5298 16.8399 6.10708 0.831102
618 2 22.5448 15.5636 8.51706 0.89391
688 2 24.6104 14.0998 4.81942 0.605711
689 2 24.4502 14.3098 7.34429 0.83148
255 1 26.9533 15.8179 5.42294 0.802949
690 2 26.7338 15.5339 8.10617 0.61915
256 1 29.2707 16.9989 6.27932 0.547574
327 1 31.6142 15.6842 5.25851 0.716664
760 2 29.5179 14.1475 4.75129 0.499421
761 2 28.9435 14.583 7.32703 0.746502
762 2 31.5715 15.8943 7.99633 0.625993
328 1 33.9009 16.8552 6.30686 0.3786
399 1 36.2581 15.7282 5.3186 0.387106
832 2 34.1326 14.5412 4.42985 0.550339
833 2 33.8041 14.2411 7.26768 0.6968
834 2 36.3391 15.4206 8.382 0.707174
400 1 38.4098 17.294 6.38535 0.534245
473 2 38.3303 14.5479 7.27327 0.81449
51 1 15.7468 19.5376 5.31842 0.618931
484 2 13.6467 18.6267 4.30193 0.542256
486 2 15.9839 19.4574 8.1615 0.600111
496 2 15.74 22.722 4.81009 0.688192
52 1 18.169 20.9947 6.42444 0.58389
123 1 20.2766 19.6055 5.50644 0.598176
556 2 18.4589 18.1784 4.69257 0.726802
557 2 18.2073 18.6755 7.19168 0.720789
558 2 20.6081 19.9605 8.23916 0.512452
568 2 20.3674 22.2263 4.72932 0.556502
569 2 20.335 22.4678 7.29857 0.495808
124 1 22.7022 20.7108 6.44361 0.477272
195 1 24.9291 19.4992 5.39499 0.77399
628 2 22.8719 17.8946 4.59358 1.18295
629 2 22.812 18.3865 7.03094 1.28943
630 2 24.6463 20.0571 8.59391 1.46671
640 2 24.8774 22.1139 4.53213 0.617889
641 2 25.0835 22.2243 7.46909 0.602188
196 1 27.0698 20.7876 6.4763 0.416309
700 2 27.1168 18.2461 4.39116 1.01577
701 2 27.026 18.1757 7.51557 0.528334
267 1 29.2169 19.6087 5.15459 0.570053
268 1 31.743 20.8318 6.13064 0.621816
702 2 29.2551 19.116 8.28615 0.679141
712 2 29.2517 22.2828 4.13447 0.636568
713 2 29.5254 22.1168 7.00997 0.572246
772 2 31.5458 18.3456 4.29248 0.488241
773 2 31.741 18.4467 7.43485 1.06489
339 1 33.8679 19.5646 5.33961 0.403902
340 1 36.1509 20.9903 6.07854 0.408165
774 2 33.8897 19.3994 8.04663 0.716829
784 2 33.9257 22.4234 4.52645 0.462453
785 2 34.1851 21.8677 7.36148 0.625051
844 2 36.1062 18.2061 4.38353 0.491468
845 2 36.1632 18.5167 6.99115 0.417282
411 1 38.6401 19.755 5.32046 0.559335
412 1 41.1147 21.0018 6.20165 0.449516
485 2 40.8351 18.5965 7.37288 0.517983
846 2 38.4121 19.3169 8.12918 0.769172
856 2 38.3969 22.2835 4.49442 0.549711
857 2 38.7829 22.5369 6.98323 0.722858
497 2 15.9083 22.0992 7.61188 0.682551
63 1 18.1789 23.5704 5.59272 1.04164
64 1 20.7455 25.0056 6.67631 0.733366
498 2 18.0439 23.8317 7.93422 0.841723
135 1 22.8445 23.3821 5.51388 0.558947
136 1 24.9566 24.9236 6.56435 0.353586
570 2 23.1257 23.8272 8.34355 0.80641
207 1 27.2764 23.3332 5.26169 0.989887
642 2 27.3442 23.546 7.75401 0.619226
208 1 29.5445 24.6882 6.49094 0.510683
279 1 31.6105 23.509 5.42541 0.460772
714 2 31.7155 23.5875 8.28843 0.571371
280 1 33.8937 24.5866 6.3961 0.632231
351 1 36.3627 23.5036 5.4889 0.491912
786 2 36.3979 23.4349 8.48203 0.548047
352 1 38.5798 24.9249 5.88887 0.466319
423 1 40.6251 23.5505 5.28199 0.608084
858 2 41.0598 23.2729 8.07714 0.819025
424 1 42.716 24.8924 6.38896 0.645937
439 2 47.4506 27.3476 11.0689 0.541283
511 2 11.3022 4.02256 11.0642 0.47543
583 2 29.776 27.414 10.9987 0.487993
655 2 33.6815 27.4467 10.924 0.534352
727 2 38.1875 27.5036 11.2104 0.825881
799 2 29.1765 3.79245 10.7859 0.670278
5 1 8.93947 5.289 9.15611 0.600452
6 1 11.5653 6.53228 10.3514 0.623349
7 1 11.283 6.37682 13.0901 0.735164
440 2 9.20314 5.27855 11.9914 0.673808
451 2 9.28532 7.73626 10.9616 0.551185
77 1 13.6055 5.11167 9.30669 0.64429
78 1 15.8261 6.5036 10.2787 0.916747
79 1 15.4929 6.3766 13.1403 0.879441
512 2 13.4491 5.2356 12.4009 0.520386
523 2 13.927 8.02094 11.0598 0.908481
149 1 18.1254 5.27161 9.31339 0.426194
150 1 20.4494 6.61748 9.88759 0.675446
151 1 20.3051 6.67363 12.7554 0.756855
584 2 17.6845 5.49319 11.8702 0.780067
595 2 18.4947 7.84269 10.9874 0.88761
221 1 22.7721 5.24632 8.89741 0.466193
222 1 25.0454 6.03358 9.88415 0.693741
223 1 24.7493 6.49026 12.6002 0.594143
656 2 22.3578 5.32606 12.0831 0.725191
667 2 22.4831 7.72902 11.2975 0.600732
293 1 27.0667 4.86824 8.8606 0.518597
728 2 27.3104 4.8431 11.6685 0.745989
739 2 27.0156 7.93767 11.0713 0.572484
294 1 29.3364 6.32468 10.0619 0.660669
295 1 29.3412 6.25365 12.9392 0.511116
365 1 31.4442 5.13972 9.20038 0.642397
800 2 31.6283 5.15303 11.9027 0.734614
811 2 31.7118 8.08952 10.7233 0.621201
366 1 34.0833 6.50026 10.1024 0.493089
367 1 33.9235 6.36728 12.9556 0.878854
17 1 11.1867 9.11635 9.18807 0.625622
452 2 11.2253 9.12127 11.8964 0.567253
463 2 11.1589 11.4384 10.9559 0.574356
18 1 13.4788 10.1441 9.88854 0.888222
19 1 13.5228 10.4096 12.6532 0.641497
29 1 13.7185 12.959 9.24446 0.696203
89 1 15.8037 8.99911 9.14253 0.757223
464 2 13.4111 13.036 11.9638 0.871837
524 2 16.2387 8.67054 11.6952 1.36496
535 2 15.6127 11.3559 10.7118 1.04522
90 1 17.851 10.5926 9.96624 0.720637
91 1 18.1679 10.2756 12.7181 0.900784
101 1 18.0591 13.1652 9.27908 0.433607
161 1 20.1746 9.29804 9.42791 0.905595
536 2 17.5634 12.5956 11.7266 0.714509
596 2 20.2149 9.53466 12.3492 2.66707
607 2 20.355 11.9353 11.0816 0.698383
162 1 22.5505 10.42 10.2014 0.922203
163 1 22.6769 10.4535 12.8065 0.979332
173 1 22.4699 12.9561 9.25634 0.518908
233 1 25.0882 9.07733 9.6196 1.14102
608 2 22.7553 13.2792 12.0654 0.831531
668 2 25.052 9.06556 12.2463 0.663668
679 2 24.9717 11.6384 11.06 0.639773
234 1 27.2835 10.363 10.3149 0.740923
235 1 27.1233 10.6197 12.9244 0.697962
245 1 26.9817 12.7476 9.14832 0.4378
680 2 27.3366 12.9792 11.8889 0.54037
305 1 29.2168 8.97138 9.38731 0.744544
306 1 31.7108 10.5381 10.0581 0.796217
307 1 31.8155 10.5297 12.7573 1.07325
317 1 31.7035 13.2231 9.2203 0.768954
740 2 29.1855 9.00134 12.1999 1.35205
751 2 29.7442 11.9115 10.9994 0.631484
752 2 31.6774 13.0936 11.981 0.675758
377 1 33.8791 9.40842 9.11674 0.56779
378 1 36.2404 10.2083 10.1425 0.40917
379 1 36.1497 10.2754 12.8563 0.388275
389 1 36.4167 13.0048 9.1844 0.715471
812 2 34.0281 8.71889 11.7207 0.658584
823 2 33.9355 11.4684 11.0621 0.548354
824 2 36.4228 12.9922 11.7498 0.566761
30 1 15.8092 14.4835 10.2641 0.757464
31 1 15.5719 14.1179 13.2184 0.45875
41 1 15.6327 17.0517 9.12326 0.652754
476 2 15.5637 17.0819 12.2554 0.553397
102 1 20.2599 14.3466 10.1815 0.955265
103 1 19.9433 14.0625 12.726 0.838217
113 1 20.1758 16.8266 9.0179 0.764507
547 2 18.0915 15.4686 11.0451 0.743256
548 2 20.2265 16.593 11.542 1.3018
174 1 24.7897 14.2465 10.25 0.440352
175 1 24.899 14.1753 12.7742 0.607248
185 1 24.8244 17.0092 9.17441 0.858218
619 2 22.3854 16.052 10.9089 0.707454
620 2 25.0125 16.5659 12.4295 1.25689
691 2 27.0249 15.538 10.7676 0.571984
246 1 29.2815 14.2703 10.1327 0.387266
247 1 29.5958 14.3127 12.7208 0.465283
257 1 29.0688 16.8465 8.93507 0.663713
692 2 29.4818 16.9768 11.8678 0.947172
763 2 32.0029 15.7083 11.3064 0.700464
318 1 33.994 14.2125 10.1595 0.492341
319 1 33.9608 14.3488 12.7227 0.554073
329 1 33.7923 16.6571 9.03073 0.392397
764 2 33.8316 17.318 11.5715 0.70731
835 2 36.1165 15.7827 11.1171 0.483785
390 1 38.502 14.6066 9.87015 0.577899
391 1 38.5089 14.728 12.7617 0.886833
401 1 38.6707 17.0524 9.094 0.704497
475 2 40.9376 15.7922 10.988 0.50865
836 2 38.461 17.0207 11.6268 0.540601
42 1 17.9829 18.066 10.1471 0.460965
43 1 17.9602 18.0598 13.0062 0.428939
53 1 18.2551 20.7475 9.3293 0.689898
54 1 20.2614 22.2081 10.1295 0.477543
55 1 20.3847 22.2842 13.0397 0.503407
488 2 18.2409 20.6253 12.5358 0.740777
559 2 19.9858 19.4328 11.3071 0.529421
114 1 22.623 18.4345 10.2702 0.496612
115 1 22.3382 18.2466 12.9777 0.492136
125 1 22.7781 21.1484 9.16962 0.742667
126 1 24.8234 22.5674 10.3319 0.691774
127 1 24.8624 22.3825 12.88 0.710141
560 2 22.042 20.5911 12.0264 0.854461
631 2 24.8503 19.6403 11.1423 0.58707
186 1 26.9949 18.365 9.97632 0.893169
187 1 26.9836 18.2417 13.0594 0.517121
197 1 27.2343 20.7699 9.09938 0.45884
632 2 27.1906 20.8623 12.0862 0.570198
198 1 29.1865 22.4154 9.91598 0.607626
199 1 29.3934 22.5608 12.8524 0.692178
258 1 31.6944 17.9998 9.66564 0.755312
259 1 31.8457 18.2975 12.8872 0.516851
269 1 31.6971 20.8322 8.86771 0.521599
703 2 29.3886 19.277 10.8636 0.753555
704 2 31.744 21.054 11.5428 0.589572
270 1 33.9959 22.144 9.94132 0.808573
271 1 34.0589 22.3507 12.7554 0.367913
330 1 36.242 18.3693 9.98517 0.583009
331 1 36.1226 18.244 12.6059 0.433633
341 1 36.2277 20.7141 9.05053 0.310808
775 2 33.9318 19.6948 10.9093 0.548058
776 2 36.6757 20.9976 12.0279 0.702163
342 1 38.6829 22.2944 10.0159 0.417422
343 1 38.5138 22.2844 12.916 0.764405
402 1 40.8422 18.38 10.2612 0.426313
403 1 40.653 18.4355 12.8373 0.615707
413 1 40.7344 20.7804 8.96732 0.48163
847 2 38.716 19.77 11.0431 0.474794
848 2 40.6751 21.1428 11.7915 0.659196
414 1 42.9149 22.1998 10.1269 0.610764
415 1 43.0522 22.0884 12.9246 0.431859
487 2 43.1427 19.6961 11.4502 0.636612
65 1 20.3342 24.7093 9.38102 0.568231
500 2 20.3426 24.9066 11.7623 0.857925
66 1 22.7545 26.1756 10.1462 0.729373
67 1 22.7853 26.2787 12.8061 0.626523
137 1 25.1958 25.0147 9.18453 0.740082
571 2 22.3634 23.2664 11.492 1.03546
572 2 24.7778 24.9674 11.8837 0.968501
138 1 27.1346 26.384 10.426 0.60003
139 1 27.1554 25.9832 13.0078 0.791992
643 2 27.2027 23.5427 10.8291 1.05719
209 1 29.2944 24.7165 9.06143 0.647046
210 1 31.7496 26.1171 9.80934 0.738283
211 1 31.7347 26.3198 12.8027 0.403911
644 2 29.5535 25.0788 11.6965 0.601124
715 2 32.0546 23.4657 10.9392 0.680139
281 1 33.9437 24.9395 9.14128 0.623305
282 1 36.2423 26.0567 9.55175 0.922936
283 1 36.1932 26.2777 12.6946 0.595032
716 2 33.9742 24.8027 11.6377 0.571378
787 2 36.225 23.4916 11.209 0.546262
353 1 38.6439 24.8135 8.87902 0.618378
354 1 40.8028 26.052 9.66555 0.574524
355 1 40.9275 26.0874 12.5474 0.64195
788 2 38.8139 24.8527 12.0183 0.549532
859 2 40.8825 23.627 10.9168 0.702701
425 1 42.9725 24.6557 9.20845 0.558611
426 1 45.1872 26.1502 10.0166 0.530678
427 1 45.4367 26.1548 12.7559 0.593047
499 2 45.1139 23.2542 10.8655 0.842705
860 2 43.1445 24.7752 12.0013 0.42053
441 2 9.58682 5.20224 14.3868 2.83586
442 2 11.1428 6.52111 16.2282 0.925866
8 1 13.3969 7.83767 13.643 0.666876
9 1 13.3019 7.82083 16.2829 0.706128
513 2 13.5502 5.25357 14.9961 0.422467
514 2 15.9907 6.46368 15.6521 0.44137
80 1 18.0272 7.84117 13.8843 0.759202
81 1 17.8693 7.97372 16.8237 0.575756
585 2 18.0588 5.0696 14.5424 0.556706
586 2 20.3165 6.42507 15.3786 0.716472
152 1 22.7257 8.09462 13.8145 0.657405
153 1 22.6054 7.69016 16.3319 0.579607
657 2 36.2299 28.5283 14.7552 0.586536
658 2 24.6162 6.52002 15.5024 0.572916
224 1 27.3015 7.55649 13.748 0.922467
225 1 27.0777 7.80823 16.3848 0.402274
729 2 27.0311 5.35482 14.4974 0.824836
296 1 31.9388 7.93226 13.8114 0.530609
297 1 31.6858 7.82435 16.8252 0.944736
730 2 29.3216 6.0485 15.4598 1.09202
801 2 31.9217 5.2121 14.6098 0.4804
368 1 36.363 7.70327 13.6189 0.462963
369 1 36.1254 7.93016 16.3893 0.73733
802 2 34.2465 6.29267 15.6373 0.751278
453 2 11.2144 9.02752 14.7914 0.450186
10 1 15.5387 8.9752 17.474 0.469587
20 1 15.6559 11.529 13.891 0.468116
21 1 15.6348 11.7181 16.504 0.623353
454 2 13.8492 10.2118 15.5361 0.85526
525 2 15.7676 9.1773 14.6231 0.711954
22 1 18.0013 12.8918 17.5164 0.430841
82 1 20.2056 9.02097 17.4922 0.453315
92 1 20.3991 11.6974 13.7935 1.01688
93 1 20.2391 11.7102 16.5173 0.460046
526 2 17.7829 10.4138 15.6663 0.455605
537 2 17.8351 12.8272 14.5626 0.35354
597 2 20.2943 9.11365 14.9153 0.677776
94 1 22.4331 12.6282 17.538 0.566912
154 1 24.6944 8.76266 17.6125 0.793227
164 1 24.7623 11.7939 13.8041 0.453204
165 1 24.8711 11.5186 16.616 0.441184
598 2 22.8308 10.3834 15.8734 0.71702
609 2 22.425 13.119 14.9137 0.541743
669 2 24.9966 9.20903 14.9167 0.804486
166 1 26.9163 13.0215 17.6639 0.511555
670 2 27.1499 10.4136 15.821 0.797308
681 2 27.0885 12.8647 14.7643 0.738442
226 1 29.1452 9.13065 17.4053 0.64233
236 1 29.549 11.9221 13.5965 0.471716
237 1 29.2404 11.7758 16.3497 0.700876
238 1 31.8909 13.1022 17.486 0.825969
741 2 29.2989 8.85746 14.3951 1.03708
742 2 31.6673 10.6052 16.342 1.84775
753 2 31.9352 13.2519 14.8527 0.610648
298 1 33.7965 9.07657 17.458 0.699254
308 1 34.1535 11.8733 13.7879 0.690313
309 1 34.0645 11.8651 16.5202 0.655025
310 1 36.0977 13.1652 17.4494 0.644424
813 2 33.822 9.42012 14.5868 0.731903
814 2 36.4546 10.3754 15.5521 0.677302
825 2 36.584 13.08 14.8794 0.51018
370 1 38.7737 9.08161 17.5897 0.701398
380 1 38.7226 11.6807 13.766 0.636272
381 1 38.6558 11.6709 16.6053 0.801417
382 1 40.8204 12.9383 17.5625 0.516207
465 2 13.5205 12.8688 14.9046 0.799236
466 2 15.6494 14.163 15.6095 0.721324
32 1 17.8166 15.4915 13.8045 0.68607
33 1 17.9839 15.5465 16.6958 0.672191
34 1 20.2344 16.941 17.5477 0.420573
538 2 19.9497 14.7072 15.594 1.13226
549 2 20.2478 16.8119 14.5779 1.01945
104 1 22.6559 15.6009 13.5141 0.569327
105 1 22.7216 15.3827 16.442 0.921387
106 1 25.0845 16.8572 17.5496 0.439832
610 2 24.9697 13.9524 15.7212 0.577868
621 2 24.9305 16.9101 14.6345 0.867356
176 1 27.2268 15.5845 13.6958 0.419959
177 1 27.3093 15.6412 16.3736 0.385784
178 1 29.4353 16.8032 17.3303 0.477257
248 1 31.8349 15.5019 13.9383 0.657462
249 1 31.6051 15.5793 16.6422 0.672627
682 2 29.3234 14.1582 15.3185 0.638413
693 2 29.3583 16.9924 14.289 0.636872
250 1 33.9498 17.0448 17.4949 0.822022
320 1 36.1192 15.6582 13.7913 0.568018
321 1 36.3765 15.7087 16.4572 0.552563
754 2 34.1252 14.3011 15.3847 0.441506
765 2 33.6906 17.4888 14.518 0.947282
322 1 38.3335 17.2882 17.7548 0.780711
392 1 40.8639 15.6891 14.0694 0.564703
393 1 40.7503 15.7967 16.7663 0.597921
826 2 38.8798 14.4236 15.3774 0.598174
837 2 38.3907 17.0273 14.6163 0.57604
394 1 43.0688 16.7959 17.7947 0.723235
477 2 42.9979 17.0061 15.0136 0.447235
44 1 20.1534 19.5748 13.871 0.537951
45 1 20.233 19.4931 16.79 0.672386
478 2 17.9332 18.3666 16.2276 0.455422
490 2 20.2579 21.8416 15.7635 0.588203
46 1 22.455 20.7938 17.762 0.593974
116 1 24.8786 19.4672 13.8604 0.515879
117 1 24.8154 19.2864 16.8286 0.399488
550 2 22.6445 18.0235 15.7814 0.521232
561 2 22.6534 20.6287 14.8487 0.586238
562 2 24.6798 22.0835 16.0842 0.677337
118 1 27.1014 20.717 17.6415 0.510184
622 2 27.2216 18.4252 15.6111 0.477532
633 2 26.7832 21.1466 14.623 0.559394
188 1 29.4986 19.6867 13.6556 0.586465
189 1 29.4346 19.4946 16.697 0.937627
190 1 31.6818 20.8714 17.3052 0.432582
634 2 29.4991 21.9833 15.9878 0.673482
694 2 31.6946 18.3714 16.0277 0.896126
705 2 31.7651 20.9405 14.5354 0.54546
260 1 34.065 19.9222 13.7067 0.597393
261 1 33.9474 19.5056 16.479 0.590596
262 1 36.2762 20.9316 17.5464 0.441258
706 2 33.8972 22.4457 15.5402 0.523908
766 2 36.2736 18.3057 15.3283 0.805391
777 2 36.2361 20.7071 14.8917 0.675905
332 1 38.4725 19.4467 13.7687 0.430312
333 1 38.785 19.8057 16.6531 0.724835
334 1 41.0839 20.8574 17.6645 0.83119
778 2 38.3019 21.83 15.5081 1.05763
838 2 40.6802 18.2362 15.6416 0.660384
849 2 40.8317 21.0027 14.5283 0.552281
404 1 43.1497 19.5667 14.0264 0.627345
405 1 42.7982 19.379 16.734 0.654246
406 1 45.3661 20.7348 17.7913 0.59684
489 2 45.1604 20.6892 15.1121 0.662567
850 2 43.2354 22.2839 15.9381 0.476711
56 1 22.7449 23.2326 13.985 0.610518
57 1 22.6213 23.5156 16.5172 0.434751
58 1 24.9214 24.6282 17.5957 0.679252
502 2 22.6216 26.0751 15.6615 1.03154
573 2 25.0533 24.7833 14.6229 0.544481
128 1 27.209 23.5343 13.7362 1.03905
129 1 27.1844 23.4071 16.4944 0.477723
574 2 27.2895 26.1866 15.8071 0.483986
130 1 29.3585 24.8122 17.4879 0.616498
200 1 31.7448 23.7718 13.86 0.586774
201 1 31.8394 23.4805 16.5017 0.592691
645 2 29.2718 24.6853 14.5556 0.916272
646 2 31.5648 26.0493 15.5694 0.453841
202 1 33.9937 24.9574 17.2007 0.821127
272 1 36.3622 23.5628 13.9139 0.410768
273 1 36.0982 23.638 16.6291 0.624173
717 2 34.1406 24.9646 14.7245 0.575736
718 2 36.8386 26.1435 15.1681 0.82494
274 1 38.5848 24.5091 17.682 1.25609
344 1 40.8026 23.5674 13.781 0.553252
345 1 40.8387 23.2953 16.5208 0.844207
789 2 39.0008 24.8644 15.0302 0.808962
790 2 40.8135 26.5275 15.1997 0.916865
346 1 43.2863 24.8617 17.6598 0.613178
416 1 45.2915 23.576 13.7515 0.603989
417 1 45.4566 23.6582 16.6454 0.51489
861 2 42.9767 24.9583 14.915 0.659819
862 2 45.4183 26.3712 15.8952 0.466192
418 1 47.5881 24.8898 17.6542 0.295375
501 2 47.3843 24.6194 14.8321 0.631733
68 1 25.0408 27.4394 13.8313 0.707564
69 1 25.2128 27.4764 16.5773 0.577111
70 1 27.3679 28.949 17.6887 0.723915
140 1 29.2468 27.3663 13.6023 0.691895
141 1 29.4006 27.2998 16.7454 0.632256
142 1 31.725 28.8482 17.538 0.660249
212 1 33.9279 27.4793 13.6531 0.829308
213 1 34.1679 27.6853 16.4081 0.536713
214 1 36.2578 28.9356 17.4191 0.597703
284 1 38.5782 27.5684 13.6869 0.545706
285 1 38.6463 27.6504 16.4865 0.622629
286 1 41.046 28.9599 17.5421 0.518045
356 1 43.0867 27.294 13.6798 0.655706
357 1 42.9102 27.5632 16.4606 0.649862
358 1 45.2862 28.7089 17.3627 0.573244
428 1 47.6612 27.2396 13.8182 0.577368
429 1 47.7331 27.5758 16.5978 0.721983
430 1 49.9858 28.9785 17.4405 0.640876
443 2 24.9205 30.0254 18.4995 0.62591
444 2 13.6437 7.60752 19.0203 0.722829
515 2 15.9341 6.42031 18.3716 0.636698
516 2 18.4124 7.6376 19.343 0.716399
587 2 20.3172 6.48776 18.0339 0.669278
588 2 22.7986 7.75007 19.4364 0.819425
659 2 38.8149 29.834 18.1634 0.74485
660 2 27.222 7.56279 19.1736 0.510078
721 2 45.6761 31.3427 22.1948 0.860662
731 2 29.9256 6.94775 18.5998 0.987413
732 2 31.8245 7.6321 19.7892 1.27571
793 2 36.3725 23.3951 0.073938 0.404163
803 2 47.8987 29.8636 18.5395 0.495708
804 2 36.2582 7.76603 19.4877 0.693003
11 1 15.8111 8.80538 20.1618 0.436943
455 2 13.8282 10.4137 18.5353 0.639088
456 2 15.7783 11.7203 19.1927 0.708634
12 1 18.0774 10.2489 21.3872 0.556127
23 1 17.8914 12.8192 20.2967 0.526122
83 1 20.4874 8.7418 20.3525 0.677702
527 2 17.7213 10.284 18.7063 0.634846
528 2 20.3923 11.5425 19.3485 0.496701
84 1 22.6057 10.2309 21.3652 0.569482
95 1 22.4386 12.8874 20.384 0.76894
155 1 24.9243 8.93609 20.9813 1.28427
599 2 22.7268 10.3534 18.4755 0.54161
600 2 24.8076 11.4113 19.7583 0.536152
156 1 27.2364 10.2716 21.4151 0.734549
167 1 27.0273 12.8909 20.3084 0.586238
671 2 26.908 10.2159 18.4247 0.725983
227 1 29.3433 9.20106 20.5673 0.979995
228 1 32.0482 10.5193 21.0985 0.575303
239 1 31.6116 13.1272 20.1138 0.427518
672 2 29.1757 11.9006 18.9084 0.718522
743 2 31.6985 9.83538 18.7445 2.14409
299 1 34.2249 9.01429 20.1352 0.602897
300 1 36.4924 10.3634 20.9772 0.499659
311 1 36.4948 13.073 20.0887 0.756332
733 2 34.2528 11.8912 21.8164 0.846718
744 2 34.0552 11.8509 19.5769 0.853455
815 2 36.136 10.0494 18.324 0.777566
371 1 38.6549 9.05846 20.1725 0.723437
372 1 40.697 10.5771 20.9974 0.594151
383 1 40.8073 13.165 20.3649 0.569451
805 2 38.5747 11.9161 22.0755 0.484209
816 2 38.8063 12.0355 19.3573 0.575634
24 1 20.0833 14.3869 21.31 0.601227
35 1 20.1357 16.906 20.4792 0.779874
468 2 18.0036 15.4907 19.835 0.66465
539 2 20.4402 14.4707 18.5762 0.568755
96 1 24.8393 13.8859 21.1873 0.536978
107 1 25.0294 16.5942 20.2383 0.531361
540 2 22.453 15.4599 19.3978 0.973738
611 2 24.6126 14.1869 18.4329 0.687295
612 2 27.2696 15.5784 19.3752 0.418136
168 1 29.2661 14.0573 21.1494 0.432859
179 1 29.5871 16.7844 20.1374 0.929278
683 2 29.475 14.2484 18.3034 0.60255
684 2 31.9604 15.5395 19.368 1.13888
240 1 34.1372 14.4423 20.987 0.672573
251 1 34.424 16.8764 20.0415 0.682753
745 2 36.2185 15.6956 22.0052 0.535988
755 2 33.7708 14.6005 18.1607 0.729565
756 2 36.7983 15.6403 19.3092 0.758979
312 1 38.6379 14.416 21.0688 0.61031
323 1 38.6325 17.1005 20.5337 0.486447
817 2 27.2157 7.96172 -0.103889 0.617836
827 2 38.8122 14.5533 18.4821 0.668144
828 2 40.7751 15.5326 19.449 0.537347
384 1 42.8952 14.5157 21.6903 0.718029
395 1 42.9324 17.049 20.6162 0.519808
467 2 16.3326 14.3262 18.4979 1.00052
480 2 19.955 19.5892 19.6486 0.712156
36 1 22.8364 18.2417 21.4541 0.589182
47 1 22.6164 20.7072 20.4083 0.782432
48 1 24.9656 21.9676 21.4087 0.843173
551 2 22.6108 17.8201 18.4451 0.608585
552 2 24.7367 19.4302 19.4584 0.622474
563 2 25.0706 22.0287 18.6259 0.659057
108 1 27.2377 17.7474 21.2813 0.730413
119 1 27.0344 20.5382 20.2952 0.65779
623 2 27.163 18.0907 18.5613 0.488202
120 1 29.186 22.26 21.6554 1.01175
180 1 31.889 17.9535 21.0693 0.762312
191 1 31.898 20.9478 20.2669 0.65208
624 2 29.6047 19.2676 19.4144 1.167
635 2 29.3151 22.0071 18.6788 0.621455
695 2 31.2812 18.038 18.7522 2.02511
192 1 33.92 22.4033 21.4307 0.642399
252 1 36.3491 18.3687 21.2454 0.607166
263 1 36.192 20.8789 20.1705 0.403191
696 2 33.8464 19.54 19.4064 0.709535
707 2 33.8433 22.1009 18.1476 0.492107
767 2 35.915 18.4581 18.194 0.75743
264 1 38.6954 22.2566 21.3045 0.613701
324 1 40.7243 18.3638 21.4299 0.767311
335 1 40.7778 20.9559 20.4146 0.620828
757 2 38.6248 19.7256 22.0967 0.530661
768 2 38.6245 19.808 19.3554 0.453591
779 2 38.8143 22.4363 18.8131 1.41088
839 2 40.9317 17.9873 18.612 0.476701
336 1 43.3248 22.0317 21.1885 0.634
396 1 45.595 18.2981 21.6918 0.567382
407 1 45.5077 20.8548 20.4923 0.807796
479 2 45.4038 18.2027 19.0347 0.580948
829 2 29.7728 11.7561 -0.181344 0.567575
840 2 43.2158 19.8301 19.5582 0.473574
851 2 43.4246 22.2005 18.5741 0.564757
408 1 47.8356 22.329 21.2365 0.709228
491 2 47.6876 22.3658 18.288 0.488711
59 1 24.9542 24.6764 20.1794 0.862574
492 2 22.5692 23.6892 19.1597 0.875579
503 2 22.9146 26.2648 17.9847 0.92288
60 1 27.3208 26.1993 21.2536 0.526872
564 2 26.9314 23.2833 18.9992 0.837708
575 2 26.9748 26.1465 18.3408 0.404672
131 1 29.4449 24.8382 20.5495 0.662069
132 1 31.6451 26.5554 21.26 0.841249
636 2 31.5203 24.2902 19.152 1.28923
647 2 32.0315 26.4358 18.2912 0.950921
203 1 33.9767 25.256 20.3071 0.728299
204 1 36.3873 26.1739 21.4793 0.603608
708 2 36.0528 23.6814 19.3654 1.19454
719 2 36.3186 25.7847 18.5825 1.42334
275 1 38.671 24.8127 20.3134 0.598455
276 1 41.0831 26.3333 21.231 0.884427
769 2 27.0891 15.5541 0.108702 0.803554
780 2 41.3683 23.6635 20.0229 1.32935
791 2 40.7041 26.1493 18.0284 0.927437
347 1 43.3196 24.8954 20.4069 0.897392
348 1 45.8321 26.0035 21.3015 1.11337
841 2 31.2787 15.8808 -0.0523793 1.73912
852 2 45.5585 23.2959 19.4906 0.621842
863 2 45.4521 26.1021 18.8346 0.582098
419 1 47.5714 24.6584 20.3699 0.826284
420 1 50.1492 26.0033 21.2568 0.536475
504 2 24.8318 27.1797 19.4733 0.5011
71 1 26.9615 28.8248 20.5509 0.521596
72 1 29.3526 30.0761 21.1573 0.70324
143 1 31.9209 29.0946 20.414 0.807815
576 2 29.6627 27.3888 19.5384 0.637796
144 1 34.2794 30.0061 21.2302 0.611173
215 1 36.3836 29.0726 20.1281 1.00498
648 2 34.4281 27.9518 19.3759 0.977008
216 1 38.5495 30.0287 21.0395 0.62709
287 1 40.9893 28.861 20.4642 0.512322
720 2 38.1503 27.4505 19.2208 0.722346
288 1 43.1178 30.1963 21.2388 0.548646
359 1 45.5806 28.7647 20.0931 0.637211
781 2 43.5955 27.5097 21.7791 0.564394
792 2 43.2695 27.6219 19.2758 0.655442
360 1 47.8962 29.9532 21.2528 0.728684
431 1 50.2062 28.8131 20.3679 0.418487
853 2 47.9797 27.6557 21.9906 0.633809
864 2 47.6345 27.2642 19.6396 0.703846
432 1 52.4468 30.3025 21.3917 0.655786
ITEM: TIMESTEP
175
ITEM: NUMBER OF ATOMS
864
ITEM: BOX BOUNDS xy xz yz pp pp pp
-2.6263586475318701e-01 5.4732778319931938e+01 1.3760096510074765e+01
-2.4476937599981433e-01 3.1529941201294648e+01 1.3755123585446002e+01
-2.2671040483843355e-01 2.2235312350671514e+01 7.9415243047938224e+00
ITEM: ATOMS id type x y z f_grace_gamma
433 2 13.6795 23.457 -0.111708 0.370093
434 2 2.42251 1.35114 0.713255 0.54763
435 2 2.20077 1.15129 3.54857 0.933673
445 2 42.8409 11.768 21.9288 1.15851
1 1 4.48606 2.55262 1.88757 1.01007
2 1 6.8847 3.43034 2.70086 0.42832
505 2 18.5512 23.5741 -0.158152 0.742685
506 2 6.77329 0.862746 0.695005 0.676868
507 2 20.6386 24.7817 3.86773 0.735632
517 2 20.4856 11.6439 22.1941 0.550685
73 1 8.86017 2.11469 1.52421 0.643781
74 1 11.4062 3.65186 2.63175 0.46158
577 2 36.5487 31.3178 22.005 0.937045
578 2 11.3642 0.780209 0.905594 0.735403
579 2 25.1296 24.8303 4.12735 0.58115
589 2 11.2704 3.38774 -0.178624 0.53757
145 1 13.5597 2.21016 1.91978 0.703475
146 1 15.7179 3.82885 2.64643 0.612501
649 2 41.0128 31.1429 21.9644 0.828336
650 2 15.6657 0.745769 0.77766 0.543776
651 2 29.2871 24.7204 3.65899 0.650059
661 2 29.6463 11.4067 22.2475 0.477555
217 1 18.1841 2.39041 1.42899 0.53984
218 1 20.4214 3.7109 2.33516 0.611445
722 2 20.5088 0.972585 0.800378 0.455601
723 2 34.379 24.8587 3.53743 0.743503
289 1 22.8409 2.48943 1.27267 0.709984
290 1 25.1375 3.80922 2.4138 0.433377
794 2 25.1228 1.36722 0.272757 0.800138
795 2 25.3047 1.09823 3.26859 0.615298
361 1 27.2924 2.2085 1.47229 0.471581
362 1 29.5779 3.64577 2.59912 0.709174
13 1 6.78194 6.19288 1.70812 0.423501
446 2 4.51178 4.75142 0.433509 0.667226
447 2 4.3379 5.01282 3.34775 0.559797
457 2 31.7291 7.64071 0.050766 0.666857
14 1 8.94542 7.41243 2.62275 0.558279
85 1 11.2538 5.85677 1.73042 0.753016
518 2 9.06553 4.73177 0.82054 0.428583
519 2 9.11458 4.94142 3.75118 0.566886
529 2 8.805 7.58988 -0.161876 0.66383
86 1 13.7645 7.651 2.35249 0.790266
157 1 15.8815 6.15269 1.63437 0.652827
590 2 13.7017 4.86465 0.940611 0.610182
591 2 13.7038 5.22319 3.64061 0.577924
601 2 26.7991 15.0723 21.8836 1.24063
158 1 17.8361 7.84102 2.4438 0.786535
229 1 19.9968 6.3858 1.34243 0.956079
662 2 17.9469 5.16823 0.31813 0.750977
663 2 18.0795 4.94577 3.4174 0.563451
673 2 32.2224 15.4831 22.1437 0.673611
230 1 22.529 7.57397 2.86839 0.809868
301 1 25.0089 6.4307 1.71803 1.12952
734 2 22.8252 5.48906 0.808653 0.641243
735 2 22.8322 5.0658 3.46092 0.54052
302 1 26.9624 7.98225 2.67122 0.57764
806 2 27.3978 4.9809 0.679331 0.640927
807 2 27.7141 5.30074 3.67758 0.561188
373 1 29.7677 6.22476 2.01251 0.668369
374 1 31.892 7.908 2.69906 0.482086
458 2 6.69649 8.65346 0.61777 0.482249
25 1 9.13696 10.2151 1.68616 0.540075
26 1 11.3003 11.6119 2.45864 0.703505
470 2 9.22929 12.535 0.737472 0.682506
471 2 9.33448 12.9125 3.60114 0.437002
530 2 11.1848 8.42001 0.72271 0.591287
531 2 11.2568 8.97199 3.39335 0.571365
541 2 11.4339 11.4235 -0.117581 0.743394
97 1 13.275 9.9787 1.64031 0.52808
98 1 15.5061 11.2238 2.63311 0.84804
542 2 13.3741 13.0008 0.581525 0.665122
543 2 13.7337 13.0803 3.47638 0.49186
602 2 15.9556 8.88257 0.699841 0.746391
603 2 15.5408 9.06346 3.69282 0.930351
613 2 16.2895 11.8253 -0.21814 1.08943
169 1 18.1811 10.4101 1.21388 0.587438
170 1 20.2696 11.4803 2.56984 0.624547
614 2 17.7926 13.2427 0.855981 1.22213
615 2 18.0183 13.2604 3.36126 0.595563
674 2 20.8967 9.18224 0.609826 0.817852
675 2 20.4688 8.81653 3.26657 0.598814
685 2 33.8427 19.7507 22.031 0.667447
241 1 22.7809 10.3694 1.46877 0.654782
242 1 24.8024 11.8246 2.63219 0.534909
686 2 22.6556 13.139 0.44554 0.561926
687 2 22.39 12.8491 3.47837 0.775125
746 2 24.6649 8.78438 0.636686 1.07918
747 2 24.6674 9.14116 3.62463 0.995123
313 1 27.1338 10.7292 1.66108 0.763626
758 2 26.9716 13.4393 0.787977 0.865466
759 2 27.2629 12.6924 3.67378 0.704469
314 1 29.4665 11.7895 2.84588 0.736567
385 1 31.7622 10.4245 1.92017 0.554761
818 2 29.7478 9.08671 0.870836 0.480299
819 2 29.6319 9.11297 3.51687 0.732634
830 2 32.0909 12.9954 1.07381 1.02733
831 2 32.0191 12.7531 3.88008 0.562815
386 1 34.3762 11.6281 2.56279 0.599011
459 2 6.90791 9.01787 3.21978 0.928059
469 2 33.9664 11.8454 -0.0226017 0.448879
37 1 11.0541 14.4253 1.65606 0.656896
482 2 11.388 17.4159 1.01048 1.23754
38 1 13.2351 15.5178 2.23679 0.637951
109 1 15.5405 14.0086 1.86685 0.57117
553 2 26.9157 23.6513 22.2407 1.01056
554 2 15.842 16.934 0.731654 0.720925
555 2 15.6618 17.0206 3.46427 0.592617
110 1 17.8414 15.9224 2.69807 0.609336
181 1 20.0871 14.0196 1.70768 0.556313
625 2 18.0497 15.7886 -0.157661 0.915775
626 2 20.3851 16.7568 0.356609 0.507049
627 2 20.2049 16.7984 3.24051 0.57977
182 1 22.4567 15.4862 2.52443 0.598244
253 1 24.9319 14.5606 1.57054 0.875422
697 2 36.668 23.67 21.9405 0.777946
698 2 24.9967 17.1477 0.21485 0.745551
699 2 24.8995 16.2029 3.36244 1.31513
254 1 27.4685 15.3199 2.83087 0.923347
325 1 29.8203 14.4458 1.41179 0.539572
326 1 32.071 15.3135 2.38066 0.886668
770 2 28.8594 16.9673 0.933717 1.33635
771 2 29.9443 16.587 3.52923 0.577602
397 1 34.4599 14.3296 1.80462 0.656603
398 1 36.6442 15.9275 2.53937 0.508593
481 2 23.0186 23.4194 22.1565 1.12971
842 2 34.3106 17.0157 0.652718 0.604081
843 2 34.2285 16.9255 3.5129 0.550592
483 2 38.514 17.3642 3.6164 0.417704
493 2 38.6605 19.4579 -0.123135 0.681769
49 1 13.6568 18.1105 1.53722 0.584927
50 1 15.8482 19.5232 2.60577 0.588696
61 1 15.7771 22.1168 1.72486 0.563419
494 2 13.5416 21.2253 0.987631 0.56453
495 2 41.188 21.3008 3.72608 0.514683
565 2 15.1826 19.5759 -0.195427 0.782235
121 1 18.1515 18.4471 1.74228 0.684345
122 1 20.4444 19.6779 2.76612 0.622105
133 1 20.3709 22.0887 1.42758 0.675058
566 2 17.7297 20.6662 0.970484 0.940241
567 2 17.8533 20.7175 3.56603 0.609024
637 2 20.3804 19.6453 -0.0131093 0.443985
193 1 22.4834 18.0613 1.58215 0.506869
194 1 24.7782 19.2988 2.70608 0.614853
205 1 24.8491 22.0881 1.7739 0.713497
638 2 22.6709 20.7827 0.769275 0.865729
639 2 22.9496 21.0734 3.57428 0.559254
709 2 24.8785 19.8828 -0.17378 0.889337
265 1 26.9976 18.276 1.78052 1.07519
710 2 27.4716 20.8537 1.1261 0.725919
711 2 27.0018 20.8624 3.59904 0.855247
266 1 29.3665 19.2926 2.4763 0.668017
277 1 29.8726 22.0104 1.71679 0.623898
337 1 31.6618 18.1695 1.46179 0.71984
782 2 32.1675 20.9373 0.281842 0.865071
783 2 32.0563 21.0401 3.13128 0.792267
338 1 34.1373 19.4762 2.33118 0.672992
349 1 34.2003 22.2241 1.59966 0.469641
409 1 36.4706 18.445 1.45089 0.632094
854 2 36.4657 21.1408 0.519672 0.643811
855 2 36.2504 21.0851 3.23154 0.668937
410 1 39.0985 19.6763 2.64183 0.963048
421 1 38.7718 22.5385 1.69663 0.509955
62 1 17.9786 23.3238 2.54977 0.562636
134 1 22.8786 23.5627 2.71576 0.609022
206 1 27.3851 23.2634 2.38184 0.767501
278 1 32.112 23.6886 2.76217 0.572904
350 1 36.3123 23.6379 2.57699 0.503542
422 1 41.2458 23.6863 2.70012 0.716975
3 1 6.81329 3.8542 5.5889 0.71342
436 2 4.65958 2.40154 4.46016 0.516549
437 2 5.02597 2.64922 7.42369 1.84451
438 2 6.86293 4.13145 8.56016 0.806458
75 1 11.4647 3.55038 5.46187 0.478005
508 2 9.07518 2.05841 4.44212 0.507695
509 2 9.05427 2.59095 7.31417 0.660185
510 2 10.9964 3.69032 8.41876 0.458831
147 1 15.9676 3.4499 5.20956 0.568936
580 2 13.5656 2.54677 4.83686 1.06638
581 2 13.3859 2.66278 7.61651 0.707214
582 2 15.9047 3.39279 8.13024 0.752741
219 1 20.3928 3.5826 5.09742 1.06383
652 2 18.2581 2.08056 4.11765 0.78533
653 2 18.4212 2.41745 6.87771 0.832947
654 2 20.549 4.05671 8.11068 0.503649
291 1 25.0876 4.02464 5.24037 0.545884
724 2 22.7699 2.28358 4.26369 0.946693
725 2 22.4914 2.37515 6.7524 0.731506
726 2 24.7 3.4885 8.15835 1.38332
796 2 27.4011 2.59116 4.33312 0.484681
797 2 27.1234 2.91469 7.02031 0.701971
363 1 29.6172 3.39982 5.22359 0.643378
798 2 29.5049 2.94242 8.09485 1.45632
448 2 6.46621 6.81245 4.4101 0.682333
449 2 6.65561 6.28503 7.06062 0.582122
4 1 9.17223 5.10484 6.24484 1.26657
15 1 9.03428 7.78293 5.23727 0.592884
450 2 8.64744 7.87042 8.16248 0.62849
520 2 11.1689 6.53951 4.30335 0.448782
521 2 11.3926 6.18374 7.12516 0.65102
76 1 13.7712 5.04124 6.48602 0.467385
87 1 13.6991 7.59303 5.4125 0.511203
522 2 13.2999 7.61888 8.18094 0.581845
592 2 15.8837 6.14105 4.79513 0.641683
593 2 15.8565 6.34192 7.53198 0.674251
148 1 18.0549 4.96187 6.40254 0.442516
159 1 17.9361 7.56614 5.42251 0.573245
594 2 18.3474 8.11772 7.97888 0.688363
664 2 20.2475 6.28243 4.33951 0.82566
665 2 20.5323 6.42844 7.0931 0.570168
220 1 22.8442 4.99115 6.17733 0.801252
231 1 22.4256 7.71598 5.49848 0.442355
666 2 22.5506 7.81713 8.44334 0.817544
736 2 25.0762 6.5574 4.2846 0.608131
737 2 25.0671 6.15168 7.18539 0.675593
292 1 27.4254 5.24302 6.23511 0.847438
303 1 27.2938 7.85045 5.49227 0.587754
738 2 27.035 7.49516 8.51002 1.0598
364 1 31.7538 5.11516 6.37266 0.803409
375 1 31.8544 7.75412 5.63328 1.01194
808 2 29.6414 6.55824 4.55078 0.790315
809 2 29.6256 6.37759 7.22474 0.641746
810 2 31.6432 7.83541 8.18798 0.642228
16 1 11.0888 8.85081 6.14055 0.845017
27 1 11.3336 11.6355 5.3773 0.741878
460 2 8.78774 10.4369 4.57728 0.54434
462 2 11.1973 11.4129 8.0292 0.704566
28 1 13.4933 13.2099 6.4308 0.563979
88 1 15.6309 8.98247 6.16081 0.55055
99 1 15.957 11.591 5.253 0.517742
532 2 13.4132 10.3064 4.38077 0.573707
533 2 13.356 10.7054 6.95518 0.79181
534 2 16.179 11.5137 7.93249 0.611911
100 1 18.1217 13.2241 6.12356 0.657987
160 1 20.1669 8.86355 6.03547 0.616593
171 1 20.2516 11.6393 5.06987 0.69047
604 2 17.8162 10.1671 4.20582 0.608802
605 2 18.142 10.61 6.8426 0.88691
606 2 20.2472 11.3652 7.96762 1.26014
172 1 22.6433 12.8907 6.30837 0.815182
232 1 24.8859 8.86312 6.64798 0.755337
243 1 25.005 11.452 5.68871 0.631422
676 2 22.4378 10.5656 4.401 0.762385
677 2 22.327 10.1675 7.03387 0.763387
678 2 24.4013 11.4002 8.29012 0.69269
244 1 27.1496 12.6654 6.34088 0.72606
748 2 27.4367 10.2943 4.42086 0.675609
749 2 27.1268 9.62121 7.74847 1.21111
304 1 29.3452 8.99226 6.55848 0.472535
315 1 29.3985 11.6513 5.58109 1.48754
316 1 31.4731 13.1856 6.31073 1.12144
750 2 29.5323 12.1027 8.03644 1.33865
820 2 31.6759 10.4112 4.57675 0.805138
821 2 31.9459 10.2768 7.34461 0.420776
376 1 34.1061 9.07334 6.18705 0.329898
387 1 34.4489 11.6363 5.49104 0.782015
388 1 36.3315 12.9917 6.55258 0.618012
461 2 35.8828 10.5134 7.41747 1.61905
822 2 34.0102 11.7144 8.07905 0.643684
472 2 11.4508 14.4052 4.41593 0.81123
39 1 13.1541 16.0986 5.4515 0.515911
40 1 15.6566 17.0057 6.27424 0.370345
474 2 13.4548 15.5118 8.2483 0.58712
544 2 15.6145 14.6687 4.56058 0.657156
545 2 15.5601 14.4647 7.28143 0.678904
111 1 17.8824 15.8011 5.29575 1.22244
112 1 20.1868 16.9361 6.2657 0.731561
546 2 17.7823 15.9634 8.20705 0.527785
616 2 19.8686 14.4282 4.47617 1.01512
617 2 20.1483 13.8569 7.3499 0.794775
183 1 22.1947 15.5562 5.12792 0.638348
184 1 24.7074 16.8437 6.24142 0.695664
618 2 22.2148 15.5226 8.48037 0.548179
688 2 24.7163 14.0626 4.60433 0.849866
689 2 24.6944 14.2991 7.37669 0.630557
255 1 27.256 15.8041 5.49069 0.936685
690 2 26.6941 15.4512 8.22823 1.11701
256 1 29.4477 17.3127 6.3028 0.619046
327 1 31.8159 15.7003 5.43396 0.699312
760 2 29.2635 14.2448 4.69647 0.712335
761 2 28.643 14.7138 7.35648 1.64551
762 2 31.6078 15.6431 7.93234 0.883701
328 1 33.9978 16.9351 6.26589 0.574542
399 1 36.5301 15.6583 5.42948 0.786823
832 2 34.146 14.4228 4.60477 0.629117
833 2 33.7605 14.2966 7.14535 0.560235
834 2 36.1976 15.6037 8.4238 0.753618
400 1 38.6734 17.4468 6.45333 0.933586
473 2 38.4862 14.8184 7.15452 0.867707
51 1 15.8822 19.4456 5.38875 0.649455
484 2 13.4001 18.6937 4.39538 0.426834
486 2 15.8543 19.3712 7.94122 0.721017
496 2 15.9198 22.6192 4.73355 0.823357
52 1 18.1775 21.1793 6.39409 0.389073
123 1 20.3732 19.7675 5.75286 0.570503
556 2 18.2898 18.3066 4.6174 0.477152
557 2 17.9835 18.3645 7.06576 0.766533
558 2 20.4601 20.0632 8.18076 0.797861
568 2 20.2142 22.15 4.75018 0.707339
569 2 20.4761 22.498 7.36171 0.643895
124 1 22.8316 20.9058 6.40057 0.613091
195 1 24.9075 19.2642 5.49705 0.548993
628 2 22.6905 18.2684 4.32691 0.673204
629 2 22.5683 18.2875 7.52936 0.524993
630 2 25.0159 19.8556 8.5315 0.515331
640 2 25.1479 21.9343 4.70226 0.768173
641 2 25.0132 22.3256 7.44644 0.479188
196 1 27.3509 20.9464 6.13094 1.02202
700 2 26.9879 17.9936 4.05337 1.34062
701 2 27.0056 18.5836 7.12473 0.843767
267 1 29.504 19.5081 5.0947 0.779627
268 1 31.9307 21.1234 6.09986 0.600609
702 2 29.3617 19.9357 7.98084 1.07165
712 2 29.6734 21.9096 4.33262 0.384543
713 2 29.8087 22.0527 6.91573 0.715684
772 2 32.0904 18.1699 4.35518 0.445098
773 2 32.0312 18.8527 7.31623 0.933503
339 1 34.0686 19.4841 5.34875 0.394708
340 1 36.309 21.0758 5.93598 0.506638
774 2 34.2609 19.5364 8.03269 0.946957
784 2 34.2011 22.6895 4.52579 0.8197
785 2 34.0744 22.1072 7.3985 0.712068
844 2 36.1849 18.3667 4.05997 0.641858
845 2 36.3522 18.6585 6.98695 0.936411
411 1 38.6963 19.8783 5.22305 0.633755
412 1 41.3391 21.1816 6.36922 0.558953
485 2 40.7276 18.4477 7.43275 0.702663
846 2 38.7056 19.8621 8.11532 0.760836
856 2 38.6881 22.2379 4.23391 0.972616
857 2 38.8849 22.5454 6.99466 0.724643
497 2 16.0461 22.2378 7.38091 0.560534
63 1 18.0585 23.7079 5.39968 0.838551
64 1 20.7202 24.9003 6.70407 0.796914
498 2 18.0921 23.9322 8.11092 0.738773
135 1 22.8898 23.6168 5.72718 0.44469
136 1 25.1129 25.0442 6.56292 0.515032
570 2 22.6776 23.8558 8.665 0.652171
207 1 27.2144 23.1641 5.34589 1.03666
642 2 27.1606 23.6131 8.07484 0.657048
208 1 29.6686 24.6457 6.40736 0.674305
279 1 31.9241 23.5128 5.4511 0.701875
714 2 31.4127 23.9338 8.30968 1.03784
280 1 34.097 24.6281 6.27776 1.05371
351 1 36.5497 23.6333 5.42013 0.611715
786 2 36.73 23.4942 8.47508 0.863606
352 1 38.7374 25.255 6.05492 0.669352
423 1 40.8384 23.5264 5.43115 0.836602
858 2 41.1446 23.4591 8.00237 0.67271
424 1 42.9929 24.991 6.22266 0.645732
439 2 47.2137 27.4432 11.2655 1.71546
511 2 24.9273 27.4651 11.1862 0.542128
583 2 29.8817 27.5074 10.9007 1.02318
655 2 20.1434 3.85262 10.9014 0.569535
727 2 38.5263 27.4115 10.8818 0.588062
799 2 43.3789 27.1552 10.8688 0.581079
5 1 9.20735 5.40466 9.04713 0.884844
6 1 11.41 6.5219 10.1257 0.604742
7 1 11.1172 6.31829 13.2031 0.691661
440 2 8.81926 5.03132 11.8806 0.686214
451 2 9.28315 7.7005 10.8644 0.630248
77 1 13.4634 5.239 9.30828 0.575796
78 1 15.8968 6.2715 10.344 0.783665
79 1 15.5999 6.44222 13.2904 1.01691
512 2 13.5106 5.26319 11.8953 0.424769
523 2 13.4845 7.97565 10.87 0.579131
149 1 18.1227 5.18851 9.46459 0.659565
150 1 20.4776 6.28017 9.91853 1.01023
151 1 20.4805 6.64009 12.5854 0.793174
584 2 17.7522 5.30011 12.4671 0.696575
595 2 18.5127 7.83554 10.7399 0.766922
221 1 22.9656 5.10226 8.99 0.674015
222 1 25.1035 6.16315 9.83666 0.484496
223 1 24.9447 6.52336 12.6923 0.512523
656 2 22.6926 5.16019 12.1068 0.574451
667 2 22.5467 7.50147 10.7776 0.714312
293 1 27.205 4.91559 8.69956 0.672314
728 2 27.2489 4.85538 11.7406 0.721578
739 2 27.4984 7.72929 11.2249 0.678907
294 1 29.3723 6.15967 10.0947 0.741979
295 1 29.5749 6.13225 12.9005 0.678975
365 1 31.4876 5.10235 9.01864 0.848903
800 2 31.9674 5.41575 11.9884 0.792277
811 2 31.4367 8.03957 10.8262 0.73576
366 1 34.1059 6.47829 10.1558 1.23247
367 1 34.162 6.11439 13.001 0.800749
17 1 11.1762 9.1504 9.11026 0.581746
452 2 11.142 9.24843 11.8847 0.827361
463 2 11.0941 11.4023 10.9223 0.958498
18 1 13.4865 10.4591 9.63651 0.617441
19 1 13.65 10.268 12.5067 0.618694
29 1 13.8223 13.0089 9.20954 0.797485
89 1 15.8099 9.01605 9.06993 0.522883
464 2 13.1324 12.9991 11.8361 0.804506
524 2 16.4583 9.06395 11.738 0.971558
535 2 15.4941 11.7553 10.9263 0.847732
90 1 17.7499 10.6517 9.92342 1.05819
91 1 18.3744 10.3241 12.7067 0.851351
101 1 18.0031 13.0517 9.23705 0.753993
161 1 20.3119 9.05679 9.27891 0.825704
536 2 17.6847 12.762 12.2805 0.490301
596 2 20.9013 8.92569 11.9686 1.83399
607 2 20.1167 11.8624 10.6907 0.696642
162 1 22.5507 10.3087 10.0906 0.700441
163 1 22.4934 10.5503 12.6559 0.928915
173 1 22.6507 13.1088 9.47668 0.633045
233 1 24.8705 9.04623 9.62556 0.887669
608 2 22.5778 12.9484 11.9686 0.778021
668 2 24.905 9.16082 12.1784 0.82746
679 2 24.9763 11.4676 11.0873 0.507514
234 1 27.36 10.264 10.5688 0.832305
235 1 26.9644 10.5177 13.0228 0.684045
245 1 26.9381 12.6938 9.2653 0.570169
680 2 27.1441 12.9876 11.7884 0.652397
305 1 29.3478 8.76903 9.58884 0.677834
306 1 31.6953 10.5403 10.151 0.706832
307 1 31.8769 10.615 12.8053 1.22217
317 1 31.6253 13.2793 9.29035 0.86557
740 2 29.2063 9.03948 12.0796 1.29101
751 2 29.4722 11.903 11.089 0.592007
752 2 31.9342 13.161 11.8252 0.748182
377 1 33.9271 9.31154 9.06303 0.57132
378 1 36.1421 10.2505 10.3 0.632446
379 1 36.3907 10.2507 12.7604 0.739624
389 1 36.5284 12.9006 9.14399 0.45502
812 2 33.786 8.69972 12.0892 0.72513
823 2 34.0971 11.7417 11.1005 0.72425
824 2 36.6151 13.3323 11.6861 0.471492
30 1 16.0089 14.5662 10.439 0.692743
31 1 15.5824 14.1582 13.1668 0.594362
41 1 15.5643 17.0314 9.21007 0.480745
476 2 15.4108 16.8753 12.3829 0.552949
102 1 20.3223 14.2948 10.2765 0.98877
103 1 20.008 14.2909 13.0041 0.51187
113 1 20.0584 16.928 9.02666 0.614766
547 2 18.2113 15.303 11.1553 1.5139
548 2 20.0527 16.8728 12.028 0.503267
174 1 24.7352 14.3505 10.1122 0.506851
175 1 24.7727 14.2536 12.8152 0.597054
185 1 24.7716 16.9323 9.02935 0.530032
619 2 22.5097 15.6268 11.0782 0.65887
620 2 24.5576 17.0864 12.0941 0.744277
691 2 26.932 15.8487 10.8557 0.493918
246 1 29.225 14.35 9.98875 0.664644
247 1 29.9042 14.5741 12.7177 1.12004
257 1 29.1025 16.7406 8.88763 0.875025
692 2 29.5515 17.1163 11.99 0.543847
763 2 31.8808 15.7116 11.4157 0.847572
318 1 34.1169 14.3438 10.1737 0.504766
319 1 34.0817 14.5194 12.8336 0.504915
329 1 34.0127 16.6679 8.70797 0.85001
764 2 34.1328 17.1277 11.1797 1.20677
835 2 36.4428 15.8339 11.005 0.812519
390 1 38.8413 14.5186 9.87039 0.678811
391 1 38.7296 14.7041 12.8068 0.583988
401 1 38.8062 17.1896 9.05149 0.58573
475 2 40.9277 15.7613 10.7721 0.401152
836 2 38.5534 17.3567 11.9361 0.580552
42 1 17.842 17.9748 10.2486 0.594984
43 1 17.7187 18.0968 13.1251 0.925511
53 1 18.0025 20.9429 9.24882 1.05735
54 1 20.3786 22.091 10.2555 0.638559
55 1 20.2683 22.3095 12.8158 0.556291
488 2 17.9315 20.517 12.6571 0.773745
559 2 19.9202 19.757 11.2269 0.62162
114 1 22.4091 18.459 10.2259 0.658623
115 1 22.5391 18.3981 13.1305 1.06763
125 1 22.8149 21.3135 9.22336 0.593549
126 1 24.952 22.3409 10.183 0.562235
127 1 25.0177 22.4302 12.7894 1.12335
560 2 22.4422 21.0792 11.997 0.559207
631 2 25.1852 20.1739 11.2237 1.18256
186 1 27.1888 18.2874 10.0688 0.408388
187 1 27.0809 18.1779 12.8792 0.503215
197 1 27.2623 20.9025 9.12641 0.708113
632 2 27.2773 20.941 11.9919 0.744945
198 1 29.2715 22.3831 9.9481 0.66187
199 1 29.4235 22.4809 12.6891 0.600112
258 1 31.8368 17.8779 9.83939 1.33701
259 1 32.0437 18.3904 12.999 0.823489
269 1 31.8892 20.9598 9.00223 1.19869
703 2 29.4647 19.6672 10.8006 0.583521
704 2 31.5125 21.1972 11.6699 0.507811
270 1 34.2471 22.2493 9.90473 0.978955
271 1 34.1026 22.6175 12.6606 0.44519
330 1 36.3627 18.4054 10.1727 0.589871
331 1 36.0939 18.31 12.6316 0.488495
341 1 36.3963 20.8602 9.11085 0.538582
775 2 33.7981 19.8154 10.7733 0.938098
776 2 36.5062 20.8483 12.0254 0.662039
342 1 38.7259 22.3667 10.1066 0.470141
343 1 38.5544 22.3641 12.8631 0.563777
402 1 40.9176 18.2505 10.4325 0.6772
403 1 40.9448 18.4203 12.9739 0.571986
413 1 41.012 20.686 8.9235 0.662513
847 2 38.5545 19.8616 11.0059 0.503372
848 2 40.8611 21.1475 11.5455 0.666377
414 1 43.09 22.2558 10.0327 0.773824
415 1 43.3075 22.4172 12.9203 0.65085
487 2 43.3897 19.6641 11.2269 0.726654
65 1 20.2596 24.6855 9.398 0.409808
500 2 20.5898 25.0945 12.2584 0.863712
66 1 22.7627 26.1104 10.0788 0.81715
67 1 22.8234 26.3158 12.7587 0.409947
137 1 25.2187 25.1121 9.34357 0.582367
571 2 22.6518 23.7466 11.1683 0.518665
572 2 24.9209 24.7194 12.3585 0.895891
138 1 27.3322 26.5041 10.2868 0.736005
139 1 27.0998 26.1797 13.0273 0.703196
643 2 27.218 23.9452 11.1827 0.606483
209 1 29.3663 24.8481 9.31399 0.749232
210 1 31.6896 26.2321 9.78459 0.68513
211 1 31.6258 26.4671 12.8416 0.582698
644 2 29.6786 25.1232 11.8132 0.704248
715 2 32.0582 23.7511 10.7487 0.795069
281 1 33.8847 24.9527 8.78565 0.603037
282 1 36.4292 26.1479 9.44808 0.818951
283 1 36.2066 26.2093 12.7722 0.967548
716 2 34.0569 24.9485 11.6987 0.585041
787 2 36.252 23.3216 11.1408 0.584789
353 1 38.7584 24.8665 8.81504 0.872084
354 1 40.7193 26.2819 9.83959 0.594487
355 1 40.8928 26.2459 12.6238 0.9087
788 2 38.5895 24.9721 11.9868 0.695285
859 2 40.9436 24.0046 11.0451 0.669509
425 1 43.0463 24.7728 9.34359 0.998489
426 1 45.3813 26.0477 9.9302 0.658515
427 1 45.4487 26.3187 12.8356 0.785389
499 2 18.0224 23.2287 10.8246 0.833859
860 2 43.4656 24.8624 12.034 0.642762
441 2 22.8779 28.5281 14.6078 0.590523
442 2 10.9753 6.45988 15.8925 0.602474
8 1 13.2523 7.96503 13.4439 0.752011
9 1 13.4332 7.78998 16.2507 0.593752
513 2 13.5211 5.36159 14.9236 0.609727
514 2 15.8095 6.09672 15.7551 0.581557
80 1 18.1005 8.00371 13.9498 0.579599
81 1 18.0089 7.78446 16.8223 0.589631
585 2 18.0458 5.27854 14.7961 0.922459
586 2 20.6039 6.463 15.3094 0.852656
152 1 22.7351 7.98966 13.6337 0.910272
153 1 22.4051 7.8741 16.5941 0.774083
657 2 36.344 28.5121 14.4793 1.50081
658 2 24.5992 6.07542 15.3734 1.20302
224 1 27.2575 7.64995 13.6722 0.587328
225 1 27.0805 7.866 16.5146 0.797105
729 2 27.2121 4.80354 14.1627 0.626242
296 1 31.7098 7.91739 13.9164 0.74477
297 1 31.7847 7.62917 16.6858 1.00767
730 2 29.2636 6.13461 15.7912 0.787173
801 2 31.9502 5.1137 14.8799 0.590775
368 1 36.3455 7.62567 13.5812 0.433224
369 1 36.3514 7.86438 16.4787 0.720211
802 2 34.25 6.34074 15.7934 0.720646
453 2 38.4329 9.31692 14.6002 0.528524
10 1 15.5965 8.95675 17.4478 0.75357
20 1 15.643 11.545 13.7822 0.60913
21 1 15.6049 11.7859 16.6243 0.457534
454 2 13.6308 10.2122 15.6479 0.509494
525 2 15.9859 8.98676 14.8518 0.617862
22 1 18.0356 12.7728 17.4715 0.763808
82 1 20.2854 8.97874 17.417 0.495416
92 1 20.4585 11.5874 13.6224 0.864347
93 1 20.1907 11.576 16.3747 0.660025
526 2 17.8667 10.6389 15.6387 0.488932
537 2 17.8519 13.1583 14.757 0.574657
597 2 20.2825 9.23915 14.8179 0.726433
94 1 22.5895 12.7547 17.7271 0.383878
154 1 24.8102 8.90969 17.5737 0.63797
164 1 24.8554 11.5705 13.7678 0.514041
165 1 24.9213 11.6231 16.7156 0.9064
598 2 22.8669 10.0417 15.7373 0.808421
609 2 22.079 12.6608 14.8631 1.17722
669 2 24.7996 9.2884 14.6895 1.28522
166 1 27.1297 13.1179 17.7913 0.903386
670 2 27.0964 10.356 15.5172 0.926537
681 2 27.2863 13.0468 14.6297 0.57791
226 1 29.2717 9.42375 17.703 0.765786
236 1 29.6897 12.0083 13.6611 0.516622
237 1 29.2741 11.7543 16.3849 0.768109
238 1 32.0039 12.8767 17.6577 0.735626
741 2 29.3747 9.27369 15.1347 0.847116
742 2 31.5057 10.5657 16.542 1.89622
753 2 32.4062 13.0176 14.6314 0.975612
298 1 34.0614 9.06209 17.242 0.569441
308 1 34.3105 11.8581 13.8078 1.01554
309 1 34.2195 11.8396 16.4214 0.482425
310 1 36.1124 13.2529 17.4979 0.861928
813 2 34.2528 9.31608 14.5767 0.705556
814 2 36.5733 10.5334 15.3464 0.791357
825 2 36.5541 12.8836 14.6995 0.556562
370 1 38.8444 9.12813 17.5657 0.417256
380 1 38.8495 11.6441 13.7716 0.634472
381 1 38.8229 11.7199 16.5279 0.583166
382 1 41.1604 13.0742 17.8209 0.384669
465 2 41.1791 13.3244 14.9834 0.764743
466 2 15.786 14.5975 16.2066 1.25995
32 1 17.8139 15.4632 13.9011 0.366662
33 1 17.8439 15.5064 16.864 0.633674
34 1 20.4265 16.7136 17.6376 0.530174
538 2 20.2502 14.3563 15.8257 0.56655
549 2 20.358 16.9651 14.8778 0.659624
104 1 22.7401 15.6407 13.9226 0.440674
105 1 22.6927 15.4227 16.7262 0.607847
106 1 25.2715 16.5599 17.4167 0.736578
610 2 24.839 13.9525 15.7088 0.639027
621 2 25.1154 16.7425 14.883 0.676336
176 1 27.409 15.6073 13.7632 0.516257
177 1 27.4111 15.6552 16.4028 0.730842
178 1 29.336 16.9497 17.4061 0.610976
248 1 31.9139 15.7644 14.0956 0.721384
249 1 31.6936 15.3075 16.648 0.918746
682 2 29.764 14.0783 15.3577 0.885384
693 2 29.4904 17.1359 14.7177 0.588012
250 1 33.9596 16.9851 17.5548 1.22086
320 1 36.3265 15.6853 13.7141 0.599805
321 1 36.3023 15.8742 16.4803 0.628978
754 2 34.5174 14.3715 15.4634 1.00609
765 2 33.9189 17.3673 14.7156 0.737137
322 1 38.3144 17.5283 17.7551 1.15198
392 1 40.8343 15.8285 14.0104 0.778644
393 1 40.8527 15.6913 16.7871 0.68823
826 2 38.5713 14.3268 15.8555 0.721055
837 2 38.5191 16.835 15.0131 0.653306
394 1 43.3515 16.9246 17.6626 0.448141
477 2 42.9322 16.823 14.678 0.640198
44 1 20.1784 19.5613 14.2017 0.546367
45 1 20.1546 19.4903 16.8118 0.610284
478 2 18.0131 17.902 15.6722 0.476195
490 2 20.4889 22.1984 15.7612 0.490118
46 1 22.6408 20.6814 17.8202 0.354556
116 1 24.8777 19.3829 14.0874 0.526791
117 1 24.7588 19.3667 16.6983 0.480553
550 2 22.822 17.8284 15.5421 1.09874
561 2 22.6359 20.6793 15.1509 0.456102
562 2 24.9359 22.2658 16.2678 1.14257
118 1 27.3308 20.7678 17.685 0.747883
622 2 27.3315 18.3485 15.8765 0.688744
633 2 26.7961 21.0998 14.6078 0.575239
188 1 29.3918 19.7835 13.6675 0.518445
189 1 29.4773 19.6027 16.401 1.06886
190 1 31.6917 20.7862 17.3543 0.754312
634 2 29.5885 22.3527 15.963 0.840334
694 2 31.5282 18.2636 16.0208 0.756608
705 2 31.6532 21.2187 14.7492 0.558875
260 1 34.0165 20.0108 13.5053 0.637082
261 1 33.8872 19.5411 16.5131 0.695917
262 1 36.4653 21.0699 17.6194 0.693196
706 2 34.2695 22.2548 15.2459 0.707545
766 2 36.4851 18.5131 15.5443 0.781364
777 2 36.4356 20.8433 14.5191 0.900635
332 1 38.566 19.4528 13.7545 0.75348
333 1 39.0355 19.8218 16.5554 0.759591
334 1 41.07 20.9565 17.8499 0.3857
778 2 38.3693 22.4499 15.5212 0.482574
838 2 40.7259 18.3875 15.8765 0.818466
849 2 40.6891 21.1196 14.8895 0.533124
404 1 43.174 19.5798 13.9385 0.536073
405 1 43.1298 19.4299 16.8095 0.406634
406 1 45.575 20.9106 17.9413 0.484268
489 2 45.4819 20.8475 15.2531 0.986087
850 2 43.3265 21.8126 15.5791 0.657652
56 1 22.8789 23.3472 13.9159 0.679057
57 1 22.7184 23.2987 16.4687 1.15002
58 1 24.9509 24.4634 17.754 0.565439
502 2 22.7065 25.8059 15.7879 1.04608
573 2 25.0287 25.1047 14.9205 0.608693
128 1 27.3265 23.693 13.6884 0.706878
129 1 27.3144 23.2739 16.6227 0.59071
574 2 27.3138 26.1369 15.5028 0.664475
130 1 29.6313 24.6609 17.6436 0.813002
200 1 31.7472 23.9155 13.8369 0.513571
201 1 31.9288 23.515 16.4324 0.514748
645 2 29.6344 24.8322 14.723 0.468484
646 2 31.8238 26.404 15.7547 0.556407
202 1 33.9242 25.055 17.2591 0.5523
272 1 36.4257 23.8751 13.8838 0.823976
273 1 36.3147 23.5649 16.7696 0.613202
717 2 34.2054 25.2737 14.3796 0.741683
718 2 37.0506 26.0272 15.104 2.61939
274 1 38.6842 24.5939 17.3901 1.31146
344 1 40.7804 23.3166 13.706 0.665177
345 1 41.0075 23.4507 16.6871 0.763615
789 2 39.2571 25.0957 15.0852 1.9596
790 2 41.1767 26.4042 15.1303 2.5034
346 1 43.2483 25.1536 17.5792 0.717128
416 1 45.4723 23.623 13.7063 0.571154
417 1 45.4546 23.7476 16.5954 1.1658
861 2 43.2234 24.8411 14.7647 0.66731
862 2 45.2791 26.6146 15.7846 0.81877
418 1 47.8929 24.9643 17.7008 0.593287
501 2 47.9544 24.8828 14.9662 0.643583
68 1 25.2276 27.5452 13.9049 0.642098
69 1 25.3628 27.3956 16.6627 0.741514
70 1 27.5239 28.928 17.714 0.843618
140 1 29.3332 27.46 13.6276 0.755316
141 1 29.5676 27.3451 16.6542 0.679647
142 1 31.8729 28.8843 17.4137 0.66362
212 1 34.0435 27.5872 13.6674 0.719259
213 1 34.3027 27.4471 16.4642 0.743664
214 1 36.4458 29.0571 17.4042 0.958434
284 1 38.4927 27.7763 13.75 0.954357
285 1 38.6438 27.7617 16.4563 1.09609
286 1 41.309 29.2382 17.5708 0.901995
356 1 43.2927 27.3091 13.4137 0.713653
357 1 42.7123 27.3774 16.4192 0.951727
358 1 45.4761 28.5914 17.4002 1.0264
428 1 47.8065 27.2959 13.7454 0.57613
429 1 47.9249 27.6641 16.7891 0.566245
430 1 50.176 29.041 17.2819 0.526671
443 2 25.0151 29.9969 18.7629 0.471323
444 2 13.5203 7.53102 19.2866 0.5681
515 2 29.9207 30.2335 18.742 0.687678
516 2 18.3997 7.9515 19.2562 0.657907
587 2 20.3315 6.39117 17.9167 0.797816
588 2 22.8789 7.86865 19.1193 0.896931
659 2 38.6367 30.1313 18.6908 0.54666
660 2 27.4018 7.69229 19.3801 0.670949
721 2 31.9665 23.6086 -0.0331843 0.614682
731 2 29.7756 6.58353 18.516 0.904456
732 2 32.0362 7.66865 19.6468 0.713494
793 2 22.9166 -0.0846155 -0.190236 0.389285
803 2 47.6265 29.8336 18.4303 0.70392
804 2 36.4146 7.66009 19.3997 0.521727
11 1 15.6226 8.89345 20.0674 0.693083
455 2 13.5513 10.3624 18.395 0.847076
456 2 15.6329 11.785 19.4186 0.714456
12 1 17.9295 10.3876 21.4746 0.587902
23 1 17.9415 12.8572 20.4185 0.520245
83 1 20.5929 8.78763 20.4277 0.835485
527 2 17.7451 10.5509 18.6034 0.566227
528 2 20.4394 11.4794 19.0244 0.675537
84 1 22.5026 10.1392 21.5193 0.776535
95 1 22.57 12.9127 20.4937 0.484234
155 1 24.9929 8.82393 20.9392 1.27582
599 2 22.4792 9.93049 18.1948 1.13403
600 2 24.4936 11.5341 19.4048 0.683235
156 1 27.1232 10.1764 21.647 0.528586
167 1 27.2311 13.0163 20.5179 1.045
671 2 27.0509 10.1614 18.6094 0.585894
227 1 29.5148 9.30496 20.6978 0.821813
228 1 32.2108 10.6669 21.1976 0.670495
239 1 31.8511 13.3237 20.1626 0.663568
672 2 29.509 11.9404 19.3849 0.656807
743 2 31.6264 10.0107 18.7433 1.32782
299 1 34.2355 9.091 20.1752 0.656936
300 1 36.5214 10.4089 20.9741 0.439694
311 1 36.6229 13.2186 20.2423 0.474146
733 2 34.2946 11.8703 22.2167 0.568686
744 2 34.2983 11.525 19.0914 0.659098
815 2 36.3815 10.133 18.1817 0.461384
371 1 38.8807 9.14705 20.1562 0.721647
372 1 40.7225 10.5049 21.0693 0.557754
383 1 41.1058 13.2337 20.4945 1.02075
805 2 38.8024 11.9045 22.1815 0.671347
816 2 38.8418 11.6644 19.2838 0.482086
24 1 20.2634 14.2483 21.4388 0.441876
35 1 20.209 17.0853 20.5043 0.596895
468 2 17.9601 15.5335 19.6855 0.669284
539 2 20.0891 14.1557 18.6182 0.628633
96 1 24.6827 13.9387 21.4529 0.63394
107 1 25.0816 16.736 20.4131 0.659082
540 2 22.0735 15.5366 19.5562 0.518723
611 2 24.331 14.3885 18.6813 1.0225
612 2 27.4396 15.563 19.1396 0.642078
168 1 29.3954 14.1621 21.3087 0.859848
179 1 29.5145 16.693 20.1159 0.750246
683 2 29.5422 14.3599 18.1139 0.508654
684 2 31.7173 15.7885 19.4398 0.728548
240 1 34.1991 14.416 20.8354 0.917
251 1 34.542 17.0834 20.1227 0.57706
745 2 36.6659 15.7061 22.1549 1.20389
755 2 34.0119 14.6566 18.3102 1.10772
756 2 36.7211 15.8371 19.5579 0.768367
312 1 38.5911 14.4779 21.215 0.454358
323 1 38.8105 17.0908 20.4897 0.551087
817 2 27.1852 8.10147 0.200445 0.478808
827 2 38.6058 14.5575 18.2821 1.13668
828 2 41.308 15.631 19.8006 1.11434
384 1 43.2771 14.5117 21.6552 0.579263
395 1 43.0131 17.2117 20.5687 0.524365
467 2 15.9133 14.1405 18.4669 0.644896
480 2 20.456 19.4684 19.6701 0.508061
36 1 22.7864 18.3706 21.434 0.570759
47 1 22.6031 20.8484 20.5209 0.739665
48 1 25.0234 21.8771 21.5187 0.947628
551 2 22.9125 17.8993 18.6005 0.576077
552 2 24.8503 19.3016 19.5879 0.62367
563 2 24.4404 21.9893 19.0307 1.04955
108 1 27.2092 17.8747 21.3611 0.997065
119 1 27.2983 20.597 20.4022 0.589414
623 2 27.0691 18.1114 18.6796 0.466757
120 1 29.4168 22.3037 21.7355 0.745227
180 1 31.9166 17.9436 21.0267 0.666668
191 1 31.9013 20.8711 20.4661 0.847858
624 2 29.5648 19.5113 19.5976 0.562613
635 2 29.9222 22.4322 18.7271 0.722859
695 2 31.6175 18.1112 18.3614 0.97394
192 1 34.2263 22.3125 21.4164 0.729708
252 1 36.605 18.4097 21.1584 0.523695
263 1 36.4251 20.9706 20.1118 0.713994
696 2 34.3455 19.6796 19.3553 0.943121
707 2 33.8901 22.0871 18.0193 0.650113
767 2 36.0741 18.481 18.5175 1.16893
264 1 38.6134 22.3841 21.3946 0.56036
324 1 40.7527 18.5461 21.5033 0.98627
335 1 40.9886 21.0389 20.3904 0.486075
757 2 38.7184 19.6082 22.1354 0.711646
768 2 38.7802 19.8913 19.5448 0.649799
779 2 38.7895 22.4305 18.6912 0.631127
839 2 41.079 18.3544 18.7078 0.415665
336 1 43.4351 22.1946 21.2883 0.542544
396 1 45.7094 18.3214 21.6463 0.502018
407 1 45.6957 20.9108 20.488 0.667025
479 2 45.3233 18.2968 19.0096 0.612729
829 2 43.6509 19.6887 22.2413 0.56746
840 2 43.2263 19.9422 19.4458 0.90645
851 2 43.2952 22.2449 18.3301 0.491452
408 1 47.9975 22.3243 21.2853 0.827198
491 2 47.9405 22.3249 18.5958 0.704196
59 1 25.0085 24.6004 20.4577 0.828108
492 2 22.4595 23.9155 19.0383 1.49444
503 2 22.6939 26.0599 18.3445 0.998341
60 1 27.0914 26.0029 21.2274 0.836948
564 2 27.4863 23.2675 19.2534 0.826332
575 2 27.2453 26.1969 18.3437 0.558698
131 1 29.618 25.0325 20.6472 0.634668
132 1 31.6821 26.6292 21.249 0.757136
636 2 31.72 24.0346 19.1945 1.40665
647 2 32.0071 26.551 18.5774 0.605388
203 1 34.1995 25.1859 20.3565 0.845957
204 1 36.3981 26.1746 21.2636 0.447296
708 2 35.969 23.3651 19.587 0.856068
719 2 36.4489 25.8878 18.8588 1.17111
275 1 38.7759 24.6906 20.0796 1.03987
276 1 41.2044 26.3355 21.3689 0.881501
769 2 27.1795 15.565 -0.159594 1.75781
780 2 41.1006 23.6201 19.7475 0.638106
791 2 40.5398 26.205 17.705 1.89093
347 1 43.4105 24.9422 20.3681 1.11007
348 1 46.0297 26.2136 21.3894 0.95314
841 2 31.3257 16.2674 -0.183331 3.22373
852 2 45.4959 23.5002 19.5721 0.713283
863 2 45.231 25.9012 18.9628 2.3145
419 1 47.9771 24.733 20.2406 0.499861
420 1 50.443 26.0469 21.2729 0.554551
504 2 24.7203 27.369 19.7134 0.696148
71 1 27.1706 28.97 20.5579 0.526291
72 1 29.5329 30.0578 21.3054 0.506957
143 1 31.9728 29.4039 20.4539 0.724017
576 2 29.829 27.5663 19.6244 0.480067
144 1 34.5544 30.1467 21.2502 0.80596
215 1 36.7099 29.134 20.1808 0.61412
648 2 34.1748 27.8805 19.5216 0.763346
216 1 38.8129 29.9546 21.2497 1.15561
287 1 41.2468 28.922 20.5157 0.638483
720 2 38.7606 27.1955 19.1031 0.982394
288 1 43.3809 30.3097 21.2894 0.566688
359 1 45.5967 28.6764 19.8926 0.941754
781 2 43.699 27.8439 22.0476 0.920259
792 2 42.9005 27.6408 19.193 0.714702
360 1 48.1186 30.1686 21.2353 0.685797
431 1 50.3167 28.9646 20.2859 0.530572
853 2 48.21 27.4755 22.1823 0.672721
864 2 47.8952 27.3884 19.6148 0.493857
432 1 52.4898 30.2357 21.4765 0.408014
ITEM: TIMESTEP
200
ITEM: NUMBER OF ATOMS
864
ITEM: BOX BOUNDS xy xz yz pp pp pp
-3.2584527930978768e-01 5.4926538854942706e+01 1.3827010293460061e+01
-3.0271841227480539e-01 3.1624631271256881e+01 1.3818760922514873e+01
-2.7867007297451002e-01 2.2287272018807588e+01 7.9782653384810498e+00
ITEM: ATOMS id type x y z f_grace_gamma
433 2 13.8448 8.03731 22.0899 0.716485
434 2 2.08571 1.25734 0.78036 0.977249
435 2 16.1922 24.8413 3.64697 1.09741
445 2 43.2736 11.8914 22.3423 0.81537
1 1 4.53198 2.24527 1.75376 0.720961
2 1 6.92991 3.53332 2.8432 0.457428
505 2 18.2157 23.6199 -0.306694 0.751711
506 2 6.72073 0.687744 0.79433 1.11144
507 2 20.6365 24.3545 3.81149 1.17082
517 2 20.2031 11.4275 22.2407 0.687534
73 1 8.80353 2.10242 1.55109 0.928568
74 1 11.3111 3.46534 2.64095 0.672221
577 2 37.0593 31.2373 21.7223 1.28975
578 2 11.0909 0.95299 0.88221 0.55835
579 2 25.3967 24.5903 3.78674 1.08246
589 2 25.0382 11.3163 22.2212 0.619714
145 1 13.6691 2.08631 1.98349 0.501056
146 1 15.8452 3.73477 2.45784 0.682133
649 2 41.3549 31.033 22.405 1.03017
650 2 15.3384 0.647787 0.799736 1.5188
651 2 29.5523 24.4445 3.8527 0.96982
661 2 15.8313 3.266 0.0309601 0.952641
217 1 18.2072 2.70193 1.30226 1.62299
218 1 20.4397 3.64478 2.44483 0.536402
722 2 20.4983 0.998559 0.674091 0.462525
723 2 34.2432 25.0347 3.49128 0.721158
289 1 22.7861 2.42808 1.04738 0.747113
290 1 25.1338 3.8519 2.44095 0.543358
794 2 25.2679 1.35741 0.418194 0.929606
795 2 25.4035 1.18129 3.29285 0.634402
361 1 27.298 2.20686 1.44 1.03723
362 1 29.9361 3.75689 2.57167 0.635021
13 1 6.94201 6.27941 1.54598 0.994738
446 2 4.38379 4.97937 0.638122 0.628626
447 2 4.87479 4.99556 3.45931 0.498234
457 2 4.79665 7.80158 -0.294962 0.915991
14 1 8.98561 7.36759 2.64136 0.502293
85 1 11.2591 5.98474 1.55664 0.569668
518 2 8.66928 4.58101 0.813112 0.753055
519 2 9.25436 4.77165 3.85237 0.589283
529 2 8.67167 7.74225 -0.292527 1.09325
86 1 13.6777 7.69842 2.55296 0.727183
157 1 15.838 6.19696 1.35516 0.592323
590 2 13.845 4.51656 0.792611 1.04696
591 2 13.3231 5.15034 3.05391 0.848302
601 2 27.2068 15.4367 21.9748 0.64659
158 1 17.7051 8.09485 2.2917 0.841241
229 1 19.8699 6.48661 1.29735 1.41083
662 2 18.0923 4.73127 0.31454 2.58723
663 2 18.1268 4.93915 3.32828 1.04048
673 2 31.9448 15.6997 21.8499 0.745333
230 1 22.5146 7.40702 2.87345 1.03407
301 1 25.1617 6.35878 1.62876 0.802311
734 2 22.4817 5.4465 1.01418 0.725469
735 2 22.5466 4.95671 3.59731 0.930853
302 1 27.0497 7.91595 2.6612 0.936719
806 2 27.4596 4.77709 1.13343 1.19342
807 2 27.7599 5.29573 3.27839 1.3114
373 1 29.9705 6.18098 1.87911 1.15283
374 1 31.9224 7.60786 2.7978 0.517726
458 2 6.53139 8.85737 0.649947 0.955815
25 1 9.03641 10.0561 1.50757 0.845372
26 1 11.1552 11.7179 2.58139 0.74787
470 2 8.75607 12.5959 0.545222 0.775907
471 2 8.82542 13.1976 3.14738 1.03072
530 2 11.1432 8.70312 0.537121 0.746137
531 2 11.1511 8.98197 2.92757 0.708674
541 2 11.4529 11.1663 -0.295505 0.793406
97 1 13.2604 10.0674 1.58025 0.643193
98 1 15.5986 11.3452 2.49038 0.513663
542 2 13.386 12.9054 0.536911 0.496123
543 2 13.734 12.8779 3.64923 1.25687
602 2 15.5742 8.99551 0.474215 0.739053
603 2 16.0379 8.74359 3.78643 2.04826
613 2 29.7875 19.5737 22.2451 0.683128
169 1 18.313 10.2226 1.28488 1.26093
170 1 20.2651 11.6859 2.55121 0.817284
614 2 17.9948 13.0448 0.900937 0.72865
615 2 17.9637 12.9031 3.24611 0.705897
674 2 20.7725 8.67791 0.273979 1.78551
675 2 20.0165 8.82741 2.98416 0.739529
685 2 33.5981 19.1644 22.2405 2.4115
241 1 22.9771 10.3178 1.41936 0.861613
242 1 24.7808 11.7443 2.3688 0.913101
686 2 22.381 12.7757 0.519948 1.06337
687 2 22.0906 12.8868 3.56478 0.855833
746 2 25.112 9.18717 0.587049 0.687434
747 2 24.9171 9.23433 3.88429 0.547551
313 1 27.2523 10.6721 1.6249 0.512634
758 2 27.2772 13.569 0.47511 0.743532
759 2 27.0201 12.9441 3.76312 0.954311
314 1 29.3834 11.9501 2.63531 0.949491
385 1 31.7977 10.6426 1.96732 0.845639
818 2 29.8889 9.35664 0.630898 0.895319
819 2 29.6451 8.72793 3.57773 1.08651
830 2 32.1973 12.7693 0.889789 1.07665
831 2 32.3393 13.0585 3.79609 0.596359
386 1 34.4582 11.5437 2.4974 0.638315
459 2 6.53997 8.92219 3.29072 0.660393
469 2 48.0412 19.4302 21.9369 0.804176
37 1 11.0499 14.1794 1.49591 1.14447
482 2 10.9984 16.8299 0.87869 0.910781
38 1 13.188 15.5656 2.40111 0.937081
109 1 15.5575 13.9069 1.90337 0.683736
553 2 13.5006 15.6771 -0.281525 0.697292
554 2 16.3306 17.2009 0.557378 0.812366
555 2 15.5342 17.3474 3.33424 1.3045
110 1 17.7272 15.7786 2.59479 0.90052
181 1 20.1659 14.0889 1.61446 0.875338
625 2 18.3036 15.8535 -0.349148 1.40056
626 2 20.3524 16.5694 0.48416 1.09852
627 2 20.3397 17.2492 3.37842 1.18782
182 1 22.4367 15.4985 2.30687 0.932097
253 1 24.8102 14.5142 1.50893 0.756729
697 2 36.4809 23.6617 22.112 0.546895
698 2 24.8901 17.3281 -0.0736505 0.92586
699 2 25.243 16.5618 3.22478 0.80764
254 1 27.5509 15.3297 2.81241 1.18649
325 1 29.6286 14.3704 1.52382 0.830341
326 1 32.2681 15.2054 2.41689 0.679367
770 2 29.205 17.0888 0.814366 0.77498
771 2 29.9163 16.5315 3.57537 0.588202
397 1 34.6678 14.1816 1.90768 1.02313
398 1 36.6512 15.9421 2.72329 0.955294
481 2 8.92841 15.3361 -0.15283 0.862481
842 2 34.319 16.941 1.1758 1.11457
843 2 34.4573 16.8752 3.50268 1.0375
483 2 38.7138 17.2141 3.70018 0.78205
493 2 11.7282 19.996 0.10194 5.49204
49 1 13.6951 18.0102 1.48211 0.802587
50 1 15.7941 19.5015 2.57255 0.891337
61 1 15.6835 22.1359 1.58499 0.692616
494 2 13.3215 21.0173 0.555827 3.34975
495 2 13.8817 20.7982 4.07531 1.05187
565 2 15.158 19.6433 -0.270112 0.723563
121 1 18.2019 18.4048 1.69936 0.965444
122 1 20.685 19.7018 2.8487 1.82894
133 1 20.4307 22.2214 1.51431 0.525069
566 2 17.6872 20.8912 0.824631 1.15496
567 2 18.0698 20.8069 3.71368 0.83497
637 2 20.2239 19.598 0.31386 0.942809
193 1 22.2638 17.9543 1.26819 0.782134
194 1 24.6689 19.3488 2.55159 1.01476
205 1 25.1032 22.1972 1.66618 0.658777
638 2 22.6869 21.1787 0.437126 0.603878
639 2 22.8086 20.8716 3.28421 1.06061
709 2 25.2511 19.5447 0.0755181 1.09432
265 1 26.93 18.1376 1.42965 1.35113
710 2 27.3688 20.6671 1.05164 1.03504
711 2 26.8518 20.5308 3.56835 1.35157
266 1 29.3238 19.2658 2.24435 1.14116
277 1 29.852 21.9615 1.74531 0.67245
337 1 31.7464 18.2378 1.46527 0.791228
782 2 32.3703 21.0789 0.0690774 0.86525
783 2 31.9485 20.9178 3.06335 1.15078
338 1 34.0695 19.7016 2.52877 0.80519
349 1 34.2748 22.306 1.62347 0.589246
409 1 36.5778 18.6635 1.42262 0.86937
854 2 36.6782 21.4107 0.41222 0.840045
855 2 36.5113 20.745 2.97803 0.759075
410 1 39.3665 19.8512 2.53819 0.881162
421 1 38.9433 22.5448 1.85344 1.24848
62 1 18.0482 23.4227 2.66128 0.589186
134 1 22.8266 23.7557 2.63733 0.738779
206 1 27.2861 23.2972 2.56151 1.0692
278 1 32.1193 23.7409 2.83539 0.858898
350 1 36.5208 23.86 2.46582 0.571861
422 1 41.2879 23.3345 2.74391 0.789692
3 1 6.90351 4.02024 5.61753 0.821732
436 2 4.67066 2.55552 4.54511 0.506792
437 2 4.79857 2.8455 7.09847 0.971754
438 2 7.12677 3.81791 9.12456 1.93578
75 1 11.3912 3.63927 5.48249 0.468845
508 2 9.1761 2.52186 4.43896 0.616369
509 2 8.91674 2.55898 7.48675 0.752689
510 2 11.3905 3.64645 8.50872 0.585496
147 1 16.1215 3.49128 5.13563 1.13417
580 2 13.8246 2.80031 4.67561 1.43004
581 2 27.2067 26.2064 7.76354 0.873474
582 2 15.8913 3.6834 7.85143 0.447824
219 1 20.4457 3.32651 5.01465 1.11315
652 2 18.1443 2.21156 3.91595 0.983158
653 2 18.3032 2.63007 6.61234 0.908609
654 2 20.1992 4.23581 7.62812 1.01151
291 1 25.1877 4.06243 5.27424 0.775314
724 2 23.0673 2.2378 3.90923 0.514391
725 2 22.5153 2.39951 6.75938 1.05118
726 2 24.6415 3.6284 8.02273 1.18401
796 2 27.8255 2.22312 3.92274 1.34501
797 2 27.1909 2.63985 7.22808 0.484797
363 1 29.5908 3.4778 5.28958 0.631216
798 2 29.9281 3.42053 8.07255 0.619537
448 2 6.67439 6.45414 4.1919 0.468749
449 2 6.49665 6.22234 7.36982 0.818491
4 1 9.4187 5.03282 6.33997 0.976186
15 1 9.19112 7.54732 5.16529 0.989907
450 2 8.92751 7.76688 7.93433 1.21358
520 2 11.5169 6.26785 4.25384 0.538336
521 2 11.6381 6.13004 7.19205 0.638603
76 1 14.0128 4.80916 6.335 1.02146
87 1 13.5977 7.65969 5.26312 0.881424
522 2 13.66 7.875 7.74193 0.856257
592 2 16.1725 5.97166 4.45283 0.735866
593 2 16.0745 6.28711 7.91465 0.981403
148 1 18.1475 5.03103 6.35947 0.79485
159 1 17.8317 7.58215 5.59012 1.1577
594 2 18.0701 7.82956 7.90517 0.702155
664 2 20.0903 5.96991 4.35635 1.17775
665 2 20.5163 6.65117 7.28601 1.06242
220 1 23.0032 5.01738 6.2634 0.807702
231 1 22.4327 7.55483 5.46667 0.979594
666 2 22.6548 7.38751 7.83587 0.679045
736 2 25.0302 6.56438 4.44282 0.805198
737 2 25.1856 6.348 7.29017 0.628716
292 1 27.4432 5.39379 6.09852 0.882123
303 1 27.2207 7.74523 5.22436 0.607398
738 2 27.5124 7.2719 8.84176 2.72998
364 1 31.9952 5.25206 6.29069 1.03179
375 1 31.7698 7.62788 5.44424 0.955484
808 2 29.6638 6.65234 4.54596 1.04338
809 2 29.8889 6.50629 7.14888 0.604188
810 2 31.8002 7.49804 8.2782 0.8304
16 1 11.0514 9.02345 6.10901 0.941134
27 1 11.226 11.6154 5.4906 0.665473
460 2 8.85816 9.95017 4.2192 0.579364
462 2 11.5691 12.1255 8.34312 0.9621
28 1 13.533 13.3657 5.89995 0.818839
88 1 15.7327 8.98922 6.24894 0.838908
99 1 16.015 11.7826 5.30837 0.76883
532 2 13.6398 10.3464 4.48185 0.755354
533 2 13.6543 10.5746 7.1019 0.693957
534 2 15.7925 11.5005 8.13004 0.873016
100 1 18.237 13.2 6.01652 0.808458
160 1 19.9827 8.97312 6.20479 1.15571
171 1 20.2978 11.295 5.15881 1.17082
604 2 18.1908 9.99866 4.49039 0.643322
605 2 17.9428 10.7962 6.83608 0.810815
606 2 20.5421 11.7508 8.0569 1.61127
172 1 22.8146 12.9722 6.44031 0.91687
232 1 24.8148 8.73712 6.56892 0.836844
243 1 25.0592 11.3313 5.63531 0.714296
676 2 22.8979 10.5845 4.47408 1.22816
677 2 22.2534 10.3461 6.68158 0.743376
678 2 24.5148 11.5124 8.12319 0.507852
244 1 27.1637 12.5962 6.50472 0.751745
748 2 27.6093 10.1271 4.58031 0.900218
749 2 27.1785 9.68834 7.61359 0.919315
304 1 29.5421 8.90294 6.39401 0.778458
315 1 29.5031 11.7069 5.56771 0.970336
316 1 31.591 13.0396 6.36316 0.73267
750 2 29.5147 11.6752 8.38272 0.493566
820 2 31.6774 10.1948 4.59578 0.705281
821 2 31.7018 10.2011 6.92376 0.721971
376 1 34.0934 9.20907 6.01583 0.652909
387 1 34.22 11.5368 5.24693 0.774815
388 1 36.6238 13.0585 6.58489 1.10047
461 2 36.4129 9.85031 7.32712 1.26954
822 2 34.0367 11.6908 7.88292 0.685723
472 2 11.1458 14.0492 4.0212 0.770913
39 1 12.9393 16.2629 5.40887 0.941505
40 1 15.457 16.9556 6.36167 0.794886
474 2 13.5403 15.6763 8.2008 0.499269
544 2 15.5247 15.0279 4.79183 1.12371
545 2 15.7076 14.2505 7.38668 0.809991
111 1 17.9479 15.9268 5.27835 1.32783
112 1 20.0704 17.014 6.14233 0.960464
546 2 17.5625 15.7995 8.11764 1.0614
616 2 20.0445 14.8511 4.20134 1.55412
617 2 20.1077 13.8746 7.54885 1.22752
183 1 22.2299 15.4694 5.2844 1.05771
184 1 24.9616 16.6863 6.44875 1.41549
618 2 22.0869 15.5811 7.9541 1.31454
688 2 24.965 13.953 4.33831 0.958732
689 2 24.9436 14.0353 7.34991 0.982981
255 1 27.4628 15.6678 5.5839 0.937093
690 2 26.7455 15.4402 8.48346 0.733297
256 1 29.7246 17.4263 6.36207 1.06188
327 1 31.9609 15.6751 5.44939 0.48744
760 2 29.2687 14.2242 4.45663 0.574504
761 2 29.1317 14.3491 7.19518 0.63035
762 2 31.2674 15.463 8.18905 0.734662
328 1 34.2265 17.0509 6.04288 0.808994
399 1 36.8103 15.6659 5.56036 0.829673
832 2 34.255 14.0721 4.66912 0.825987
833 2 33.9347 14.3452 7.24832 0.695412
834 2 36.4627 15.7772 8.14384 0.593442
400 1 38.8022 17.563 6.43137 1.13033
473 2 38.856 14.7861 6.96125 1.10396
51 1 16.0665 19.5549 5.39817 0.587675
484 2 13.3151 18.5264 4.60367 1.026
486 2 15.669 19.6446 8.087 1.2437
496 2 15.9035 21.9924 4.36656 0.650124
52 1 18.1656 21.2888 6.39078 0.670835
123 1 20.5786 19.8392 5.85347 0.875511
556 2 17.9929 18.4609 4.11597 1.08893
557 2 17.9138 18.0685 7.336 0.707911
558 2 20.2392 19.8087 8.72778 0.608085
568 2 20.2783 22.1612 4.29491 1.29836
569 2 20.6983 22.2541 7.65174 0.784562
124 1 22.922 21.1858 6.39345 1.09607
195 1 24.8495 19.1959 5.60272 1.20881
628 2 22.2154 18.6782 4.12392 2.32648
629 2 22.2194 18.0697 7.89318 1.45852
630 2 25.3663 19.1106 8.23376 1.69818
640 2 24.9425 21.8074 4.86801 1.03994
641 2 24.8386 22.5188 7.31324 1.5833
196 1 27.6684 20.8657 5.93119 0.964586
700 2 27.0411 17.8609 4.5881 0.893986
701 2 27.1064 18.5121 6.76365 1.3193
267 1 29.8937 19.4778 5.12499 1.12782
268 1 32.1813 21.1814 6.0554 0.955712
702 2 29.8104 20.2726 7.68565 1.81036
712 2 30.1392 21.8974 4.56194 0.982793
713 2 29.7233 22.4061 7.10694 1.5458
772 2 32.3478 18.128 4.29208 0.673486
773 2 31.9564 18.7549 6.5934 2.09202
339 1 34.3639 19.5608 5.25048 0.54312
340 1 36.5581 21.1198 5.9254 0.713899
774 2 34.6613 19.7047 8.36482 0.740387
784 2 34.6176 22.228 4.35985 0.733598
785 2 34.0131 22.5463 7.18439 1.50956
844 2 36.509 18.6711 4.06972 0.702557
845 2 36.5838 18.4738 7.15786 1.09387
411 1 38.708 19.966 5.25151 0.760263
412 1 41.4578 21.1661 6.55192 0.65668
485 2 41.2143 18.1596 7.44456 0.818221
846 2 38.7613 20.5294 8.05758 2.78386
856 2 38.9226 22.3675 4.16433 1.59013
857 2 38.6716 22.3477 7.17268 2.65403
497 2 16.1486 22.5885 7.15734 0.621225
63 1 18.0107 23.8964 5.15311 0.74339
64 1 20.5595 24.823 6.59104 0.741924
498 2 17.936 23.755 8.42213 0.9755
135 1 22.9142 23.8122 5.94326 0.782147
136 1 25.321 25.0189 6.66581 0.896471
570 2 22.3173 23.8868 8.5163 0.788074
207 1 27.2579 23.419 5.3426 1.13965
642 2 27.216 23.6543 8.62304 0.542854
208 1 29.6255 24.7741 6.27767 0.971605
279 1 32.176 23.6185 5.42594 0.72341
714 2 31.4552 23.8038 8.01501 0.893518
280 1 34.4844 24.8035 6.01307 1.23497
351 1 36.7245 23.8688 5.28354 0.568898
786 2 36.4293 23.4763 8.05742 0.455828
352 1 38.8981 25.5424 6.29633 0.757439
423 1 41.1516 23.6967 5.46327 0.629377
858 2 41.1303 23.7967 8.28374 0.764303
424 1 43.4267 24.8611 6.17376 0.859784
439 2 47.4354 27.7047 10.9806 2.08444
511 2 24.8363 27.2773 11.271 0.780533
583 2 15.794 3.87071 10.8596 1.40567
655 2 20.4737 3.79252 11.0306 1.82845
727 2 38.6742 27.4543 10.6273 1.41814
799 2 43.68 27.2039 10.7728 1.11464
5 1 9.37539 5.45519 8.94641 1.56504
6 1 11.1701 6.51658 9.89778 1.55984
7 1 11.0001 6.30143 13.086 1.0636
440 2 8.39734 4.73641 11.3481 1.53098
451 2 8.81062 7.57282 10.8107 0.723303
77 1 13.4773 5.26311 9.155 0.444498
78 1 15.8955 6.20298 10.4643 0.905834
79 1 15.7618 6.62722 13.2512 1.06015
512 2 13.5172 5.12407 11.6032 0.617526
523 2 13.3115 7.86845 10.4931 0.817903
149 1 18.0752 4.99221 9.45734 0.776699
150 1 20.586 5.93471 9.88639 0.69226
151 1 20.5645 6.38272 12.5496 0.754508
584 2 18.1986 5.22271 12.5877 1.23181
595 2 18.1753 7.80798 10.7462 0.933721
221 1 22.8918 4.90904 9.1255 0.784584
222 1 25.1801 6.47869 9.98818 1.36631
223 1 25.2212 6.49196 12.7657 0.683415
656 2 23.0228 4.75465 11.6984 0.750695
667 2 23.1343 7.34542 10.4992 2.58184
293 1 27.4539 4.92215 8.78653 0.922005
728 2 27.0344 5.13429 11.4362 1.73469
739 2 27.4155 7.10803 11.1223 2.74357
294 1 29.3978 5.94187 10.1759 1.18521
295 1 29.7647 6.13127 12.8304 0.713307
365 1 31.7466 4.93186 8.88776 0.627738
800 2 32.0111 5.62741 11.9168 2.65164
811 2 31.393 7.51275 11.3833 2.11056
366 1 34.0668 6.44874 10.1709 0.745839
367 1 34.4232 5.90981 13.0575 0.985153
17 1 11.0759 9.05008 8.96922 0.908693
452 2 11.2584 8.8658 11.9998 0.742527
463 2 38.6472 11.865 10.7322 0.615686
18 1 13.5043 10.782 9.49599 0.903344
19 1 13.7436 10.2464 12.3139 0.795331
29 1 13.8723 13.2108 9.08358 1.2339
89 1 15.7425 8.96464 8.92541 0.88422
464 2 13.0068 13.0087 11.8977 0.968809
524 2 15.985 9.346 12.0848 1.13488
535 2 15.3734 12.2846 11.2781 1.927
90 1 17.8213 10.4389 9.88793 1.00772
91 1 18.4726 10.3608 12.7173 1.04648
101 1 17.978 13.1033 9.08627 0.903375
161 1 20.528 8.77225 9.01938 0.660705
536 2 18.0331 13.2523 12.5617 0.921364
596 2 21.1178 8.51639 11.2557 2.54788
607 2 19.9908 11.1739 10.5669 1.07891
162 1 22.5304 10.2504 9.84616 0.627773
163 1 22.5634 10.575 12.6709 1.19269
173 1 22.6529 13.1183 9.48949 0.81197
233 1 24.695 8.90384 9.39815 0.650459
608 2 22.0072 12.9106 12.1059 1.51307
668 2 24.5713 9.09025 12.0851 0.703497
679 2 24.7601 11.6174 10.9423 0.550677
234 1 27.3018 10.176 10.6175 0.875622
235 1 27.0516 10.2983 13.1745 0.908458
245 1 26.9242 12.7094 9.25665 0.605452
680 2 26.9736 13.342 12.0042 0.676371
305 1 29.5301 8.69606 9.53754 0.765809
306 1 31.643 10.5934 10.1667 0.991051
307 1 31.9274 10.6162 13.0067 1.07798
317 1 31.58 13.2274 9.25588 0.915849
740 2 29.7556 9.38988 12.5458 0.761899
751 2 29.2619 11.7751 10.9633 0.75739
752 2 32.3247 13.0127 11.8809 0.81824
377 1 33.9573 9.00812 9.09216 0.889568
378 1 36.1098 10.3736 10.1753 0.981449
379 1 36.6343 10.3342 12.7871 0.784643
389 1 36.5891 12.7848 9.16372 1.01007
812 2 33.7646 8.82798 12.222 0.911537
823 2 34.3071 12.0563 11.0677 1.17391
824 2 36.6659 13.47 12.071 0.961079
30 1 16.0137 14.5424 10.484 0.827452
31 1 15.5282 14.2968 13.0482 0.883066
41 1 15.454 16.9551 9.37072 0.815421
476 2 15.5718 16.5271 11.8498 1.44555
102 1 20.4258 14.3158 10.2299 1.0412
103 1 20.2813 14.5375 13.3899 0.757933
113 1 20.0037 17.1295 9.18132 0.907018
547 2 18.281 15.4816 11.3799 1.09959
548 2 20.0953 17.5357 12.7013 1.15238
174 1 24.8137 14.485 9.95795 0.726865
175 1 24.7647 14.3902 12.9838 0.759496
185 1 24.569 16.9183 8.9624 1.17327
619 2 22.7044 15.2348 11.5254 1.39594
620 2 24.3003 17.7686 11.2499 3.36665
691 2 26.8813 15.9781 11.2994 1.24809
246 1 29.1562 14.4508 9.85076 0.83664
247 1 29.9965 14.8482 12.7672 1.13537
257 1 29.2372 16.8351 8.98775 1.36494
692 2 29.5871 17.4027 11.8572 0.785595
763 2 31.7262 15.6668 11.1419 1.53978
318 1 34.266 14.4966 10.0408 0.66997
319 1 34.2776 14.7097 12.9894 0.737309
329 1 34.208 16.8301 8.55946 0.844889
764 2 34.4401 16.827 11.2739 1.01609
835 2 36.951 15.8108 10.8188 0.802087
390 1 39.1227 14.2513 9.97855 1.03001
391 1 38.9187 14.5293 12.8819 0.846604
401 1 38.8235 17.3204 9.13687 0.78005
475 2 13.3975 15.4117 11.015 0.770696
836 2 38.762 17.5266 12.2884 0.920912
42 1 17.7142 17.9779 10.3335 0.864593
43 1 17.5407 18.0618 13.1318 0.94918
53 1 17.6555 21.1241 9.13695 0.702594
54 1 20.5621 22.0221 10.2706 1.60857
55 1 20.0798 22.3146 12.7621 1.06435
488 2 17.5738 21.1071 12.4582 1.80147
559 2 19.9566 19.6271 11.0991 1.10044
114 1 22.172 18.4948 10.2207 1.7896
115 1 22.6437 18.5614 13.1733 1.13477
125 1 22.6668 21.3138 9.2658 1.1763
126 1 25.21 22.2572 9.88664 0.744273
127 1 25.2863 22.1894 12.8632 1.30084
560 2 23.2075 21.4316 12.0047 1.18459
631 2 25.1717 19.8875 11.4663 1.34046
186 1 27.3226 18.2437 10.1514 0.690374
187 1 27.2481 18.1689 12.6658 0.825298
197 1 27.2201 21.1061 9.14319 1.54694
632 2 27.5731 21.1505 11.7798 1.00611
198 1 29.569 22.1914 10.0084 0.648922
199 1 29.5397 22.3263 12.5926 0.805443
258 1 31.854 17.9033 10.2066 1.99298
259 1 32.0411 18.4932 12.9946 1.56398
269 1 32.0407 21.1352 9.15329 0.866873
703 2 29.7391 20.0057 10.7032 1.20032
704 2 31.5777 21.1558 12.1333 0.929564
270 1 34.4243 22.4811 9.91845 0.707653
271 1 34.0786 22.8162 12.5682 0.723472
330 1 36.506 18.3715 10.0724 0.784093
331 1 36.0752 18.393 12.9727 0.838632
341 1 36.6186 21.1328 9.16366 1.19649
775 2 33.7217 19.7108 10.6908 0.752397
776 2 35.791 20.7289 11.7024 1.29556
342 1 38.7531 22.4336 10.0807 0.601825
343 1 38.5726 22.3549 12.7556 0.977076
402 1 41.0082 18.2489 10.3873 0.71505
403 1 41.1921 18.41 13.2672 0.978231
413 1 41.3611 20.7038 9.07158 0.68254
847 2 38.552 19.7968 10.7663 0.655454
848 2 41.2556 21.1052 11.68 1.02467
414 1 43.25 22.2045 10.0135 0.841648
415 1 43.4326 22.617 12.8346 1.18197
487 2 15.8091 19.5889 10.6259 1.23939
65 1 20.2213 24.8032 9.4068 0.85781
500 2 20.5406 24.9376 12.709 1.55609
66 1 22.6724 26.2306 10.0037 0.844425
67 1 22.8315 26.3145 12.886 0.907343
137 1 25.1551 25.0926 9.55554 0.72181
571 2 23.0244 23.9723 10.9838 0.874383
572 2 25.0451 25.0312 12.4774 0.863785
138 1 27.5647 26.6423 10.1234 0.864536
139 1 27.1856 26.4604 12.7903 0.556
643 2 27.1525 24.2121 11.1993 0.740323
209 1 29.3601 25.1808 9.48731 0.787262
210 1 31.7203 26.3651 9.81091 0.800056
211 1 31.6693 26.5662 12.8539 0.650311
644 2 29.5885 24.9123 12.3495 0.901461
715 2 31.6346 23.8703 10.7966 0.515063
281 1 33.957 24.935 8.51798 0.826765
282 1 36.531 26.2452 9.58739 0.816278
283 1 36.2512 26.2899 12.628 0.890706
716 2 34.0907 25.5337 11.6181 0.752199
787 2 36.589 23.5467 11.0281 0.624098
353 1 38.8981 24.8787 8.82965 0.629732
354 1 40.7593 26.5763 10.0413 0.915401
355 1 40.7809 26.3559 12.6598 1.13361
788 2 38.1786 25.0393 11.8798 1.06403
859 2 41.0047 24.0367 11.0993 0.610332
425 1 43.1593 24.8654 9.44415 0.815783
426 1 45.6733 25.9021 9.86354 0.831587
427 1 45.649 26.3624 12.8907 0.725625
499 2 18.3952 23.4214 11.0648 0.677638
860 2 43.6675 24.9114 12.0022 0.949093
441 2 49.4606 28.298 15.1102 10.3894
442 2 11.0089 6.27376 15.51 0.913633
8 1 13.1514 7.94374 13.4281 0.803773
9 1 13.6115 7.63226 16.3294 1.02789
513 2 13.3651 5.31551 14.6868 0.773671
514 2 15.7166 5.98904 16.545 1.67632
80 1 18.2385 7.96683 13.9256 0.78974
81 1 18.1363 7.50914 16.5383 0.755713
585 2 18.1211 5.42447 15.0534 1.79885
586 2 20.6226 6.41523 15.2031 0.730452
152 1 22.6726 7.67822 13.4665 0.796569
153 1 22.3537 7.8518 16.7598 0.713542
657 2 36.0936 28.8921 14.6717 0.731223
658 2 24.7714 6.43003 15.2997 0.887011
224 1 27.1457 7.83442 13.7877 1.16954
225 1 27.1183 7.87801 16.6977 0.790895
729 2 41.2179 28.4594 14.2854 1.30435
296 1 31.3987 7.83052 13.9891 0.825431
297 1 31.8125 7.4155 16.4916 1.07259
730 2 29.5232 6.74139 15.8213 1.28146
801 2 31.861 5.20779 14.7029 0.768737
368 1 36.2653 7.51988 13.7045 0.918442
369 1 36.662 7.82609 16.5753 0.636919
802 2 34.1651 6.57432 15.7187 0.845147
453 2 38.5733 8.97215 14.624 0.665606
10 1 15.7508 8.95767 17.3896 0.676278
20 1 15.6884 11.5794 13.6492 0.801476
21 1 15.6687 11.772 16.7613 0.673276
454 2 13.1587 10.6293 15.4101 1.35626
525 2 15.7807 8.56399 14.9116 1.30948
22 1 18.042 12.7341 17.4361 1.38902
82 1 20.1932 9.06508 17.4784 0.735266
92 1 20.2497 11.6211 13.4203 1.49295
93 1 20.2519 11.4018 16.2624 0.753863
526 2 17.9374 10.5055 15.5277 0.622442
537 2 17.9704 13.1971 15.1847 1.23438
597 2 20.4501 9.1975 14.4647 0.915072
94 1 22.6824 12.9546 17.8347 0.79988
154 1 24.9978 9.1474 17.5122 0.903926
164 1 24.7843 11.5766 13.852 0.535544
165 1 24.981 11.6903 16.8484 0.930136
598 2 22.4657 10.3684 15.2026 0.965942
609 2 22.6579 12.7123 14.9651 0.822048
669 2 25.0037 8.70226 14.6731 0.864064
166 1 27.3399 13.1393 17.7784 1.27923
670 2 26.9006 10.3829 15.6532 1.15014
681 2 27.3843 13.1326 14.6358 0.72695
226 1 29.4979 9.61688 18.1029 1.24653
236 1 29.8097 11.9804 13.8373 0.623443
237 1 29.29 11.8512 16.5689 0.692111
238 1 31.9901 12.5687 17.7168 0.990458
741 2 29.6216 9.49029 15.5614 1.34435
742 2 31.7699 10.2676 15.8824 1.23527
753 2 32.119 12.7923 14.6293 0.946678
298 1 34.361 9.05611 17.1439 0.771951
308 1 34.5311 11.7695 13.6403 0.709908
309 1 34.3156 11.6677 16.3145 0.616786
310 1 36.4131 13.315 17.5787 0.962744
813 2 34.6087 8.98161 14.6755 1.36142
814 2 36.4284 10.6771 15.5618 0.68342
825 2 36.712 13.0033 14.358 1.29934
370 1 38.8157 9.08261 17.3159 0.784736
380 1 38.9991 11.737 13.6645 0.623256
381 1 38.9684 11.8108 16.474 0.684954
382 1 41.2649 13.2895 18.0066 0.76986
465 2 41.1853 13.5528 15.0395 0.926303
466 2 15.5445 14.7646 16.2861 0.990292
32 1 17.8231 15.5932 14.0913 0.841876
33 1 18.0096 15.453 17.0471 0.595338
34 1 20.5113 16.548 17.7868 0.699725
538 2 20.585 13.8651 16.1176 0.504518
549 2 20.472 16.9472 15.1253 0.975591
104 1 22.6809 15.5967 14.4337 1.07651
105 1 22.654 15.4421 17.0875 0.900784
106 1 25.2336 16.3008 17.4311 0.9863
610 2 24.6703 14.324 15.6116 0.624752
621 2 25.4214 16.5014 14.9004 0.864032
176 1 27.5975 15.5912 13.6954 0.793041
177 1 27.4976 15.4494 16.387 0.721745
178 1 29.3662 17.2077 17.57 0.856349
248 1 31.9872 16.1043 14.1582 0.85797
249 1 31.9398 15.194 16.7113 0.958423
682 2 30.058 14.3963 15.3901 0.765113
693 2 29.6109 17.1846 15.0967 0.995652
250 1 33.9572 16.9855 17.4287 0.713516
320 1 36.5927 15.7918 13.656 0.483236
321 1 36.2573 16.1221 16.6491 0.97669
754 2 34.5613 14.5989 15.6568 0.512844
765 2 34.6339 17.063 14.9074 1.09455
322 1 38.4985 17.6051 17.669 0.789481
392 1 40.7267 15.9165 13.8309 1.04387
393 1 40.93 15.6239 16.874 0.679459
826 2 38.194 14.1812 15.9378 1.13576
837 2 38.7632 16.7214 15.4047 1.09579
394 1 43.4792 17.0829 17.5962 0.800539
477 2 43.2963 16.9161 14.9143 0.725821
44 1 20.2448 19.5542 14.4222 1.19241
45 1 20.1641 19.4399 16.9414 1.19695
478 2 18.0022 17.5708 15.5061 2.13356
490 2 20.3476 22.5832 15.6428 1.27644
46 1 22.7562 20.5063 17.7976 0.854938
116 1 24.8469 19.3424 14.19 0.972616
117 1 24.8317 19.4837 16.6695 0.889966
550 2 22.8541 17.8635 15.8257 0.743333
561 2 22.6311 20.7269 15.239 0.965208
562 2 25.4029 21.9415 16.0855 1.22676
118 1 27.5424 20.8086 17.6684 1.25987
622 2 27.0434 18.275 16.0059 0.6038
633 2 27.2744 20.9347 14.8894 0.687553
188 1 29.269 19.8548 13.638 0.906799
189 1 29.4677 19.7875 16.148 1.06081
190 1 31.6776 20.7248 17.5557 1.50339
634 2 29.6166 22.6078 15.5577 0.733265
694 2 31.743 17.8684 15.4926 2.49555
705 2 31.6229 21.3218 14.6311 0.838056
260 1 33.9921 20.0631 13.3727 1.07554
261 1 33.9407 19.6736 16.5029 0.989378
262 1 36.6707 21.1202 17.4255 0.675131
706 2 34.6321 22.1042 15.1612 1.06809
766 2 36.5908 18.713 15.9982 0.737049
777 2 36.6231 21.3373 14.2861 1.09434
332 1 38.6757 19.5931 13.7786 0.872569
333 1 38.9075 19.9196 16.5508 1.10409
334 1 41.0034 21.0959 17.8811 0.898544
778 2 38.6921 23.1122 15.6319 1.47616
838 2 41.3164 18.0307 15.8565 0.641557
849 2 40.7541 20.7884 15.2405 1.40352
404 1 43.138 19.6542 13.9402 1.20431
405 1 43.672 19.5542 16.8316 0.476865
406 1 45.7971 21.118 17.9257 1.17223
489 2 46.0372 21.033 15.3592 1.19906
850 2 43.0921 21.7665 15.3396 0.943979
56 1 22.86 23.6054 13.7564 0.842657
57 1 22.7331 23.0911 16.6455 1.30995
58 1 25.0465 24.3608 17.8454 1.03916
502 2 22.8406 26.0161 15.7012 1.98488
573 2 25.038 25.0081 15.3871 0.832858
128 1 27.3413 23.7537 13.8505 1.19079
129 1 27.4288 23.2941 16.7361 1.24395
574 2 27.6497 25.9633 15.4416 1.02967
130 1 29.8949 24.643 17.7841 0.620233
200 1 31.8366 23.9433 13.563 0.426591
201 1 31.9393 23.5636 16.4482 0.798031
645 2 29.8523 25.2558 15.1352 0.696117
646 2 32.2306 26.65 15.7874 0.90767
202 1 33.9657 24.9932 17.5428 0.539251
272 1 36.4989 23.984 13.8239 0.817536
273 1 36.4539 23.547 16.8505 1.04204
717 2 34.1099 25.1351 14.3046 0.83337
718 2 36.7236 25.8704 15.9655 1.47327
274 1 38.6578 24.9169 17.1133 1.20863
344 1 40.9331 23.2334 13.6515 1.03167
345 1 41.2215 23.6851 16.786 1.5661
789 2 39.1999 25.1558 14.4436 1.7471
790 2 41.1509 25.7715 14.9812 3.16272
346 1 43.0899 25.2347 17.5034 1.2527
416 1 45.7884 23.6836 13.7605 0.780208
417 1 45.4748 23.7776 16.5579 0.830473
861 2 43.4481 24.4396 14.6865 1.04711
862 2 45.2384 26.2796 15.5043 0.759789
418 1 48.152 25.0392 17.5482 0.942388
501 2 20.7734 24.9922 15.0649 1.17407
68 1 25.3095 27.6944 14.0591 0.771117
69 1 25.2994 27.3703 16.8579 1.39084
70 1 27.6129 28.8712 17.7076 0.812444
140 1 29.4813 27.7188 13.8578 0.832905
141 1 29.7383 27.429 16.574 0.874493
142 1 32.0383 28.9055 17.3383 0.828469
212 1 34.0619 27.9173 13.6369 0.985766
213 1 34.4389 27.3498 16.5255 0.713422
214 1 36.6527 29.1011 17.369 0.806525
284 1 38.5779 27.8628 13.6535 0.875441
285 1 38.7282 27.7323 16.4767 1.05549
286 1 41.2832 29.4624 17.6455 1.50157
356 1 43.3222 27.4878 13.3592 1.11825
357 1 42.8096 27.3389 16.373 1.37656
358 1 45.5768 28.5436 17.3976 0.743476
428 1 48.0048 27.4652 13.7932 1.7847
429 1 48.1296 27.558 16.8658 1.33371
430 1 50.4851 29.0347 17.273 1.06997
443 2 25.1264 29.9617 18.8619 0.890169
444 2 13.3157 7.53963 19.4739 0.604572
515 2 30.0796 30.4518 18.8866 1.0742
516 2 18.1551 8.4044 19.6249 1.15156
587 2 20.4245 6.24184 18.2641 0.751802
588 2 22.8437 7.70042 19.2814 0.744285
659 2 38.8705 30.474 18.8075 0.763919
660 2 27.5178 7.86936 19.6189 0.689787
721 2 18.0543 -0.0174694 0.0713909 0.676317
731 2 43.5267 30.1273 18.4603 0.871414
732 2 32.138 7.5946 19.5502 1.11412
793 2 36.7814 8.23707 21.9067 0.834609
803 2 47.5251 30.1947 18.3883 0.856116
804 2 36.7273 7.54619 19.1807 1.0181
11 1 15.4735 9.12986 20.1832 0.745588
455 2 40.8407 10.3222 18.1897 0.584907
456 2 15.4384 11.6004 19.6319 0.577824
12 1 17.8044 10.4654 21.4804 0.745412
23 1 18.0727 12.9631 20.4652 0.567705
83 1 20.5939 9.01146 20.4228 0.624879
527 2 17.9443 10.3827 18.4333 0.981497
528 2 20.2768 11.332 19.0938 1.06426
84 1 22.5747 10.1227 21.4143 0.61452
95 1 22.5275 12.8529 20.5963 0.603515
155 1 25.0091 8.75002 20.5194 0.794805
599 2 22.3175 10.1845 18.3102 0.795045
600 2 24.482 11.4843 19.209 1.29635
156 1 27.1583 10.0989 21.8579 0.783164
167 1 27.3105 12.9281 20.7051 0.942122
671 2 26.8719 10.5834 19.0202 1.07722
227 1 29.8117 9.28281 20.6291 1.03498
228 1 32.247 10.7434 21.3431 1.09017
239 1 32.1295 13.3732 20.3166 0.90761
672 2 29.9522 11.7347 19.9277 1.08892
743 2 31.7693 10.3714 18.9058 1.13584
299 1 34.2238 9.17066 20.2652 0.938065
300 1 36.5546 10.5297 20.976 0.794323
311 1 36.5705 13.2227 20.3908 0.63764
733 2 20.7491 3.92854 -0.0412711 0.995686
744 2 34.4152 11.4516 18.7198 0.766914
815 2 36.7871 10.5791 17.9856 0.744747
371 1 38.9143 9.06552 20.1177 0.645677
372 1 41.034 10.4017 21.2811 0.691177
383 1 41.3239 13.2307 20.6864 1.14718
805 2 38.7727 11.9831 22.2397 0.785959
816 2 38.6851 11.4992 19.1525 1.07538
24 1 20.4666 14.0802 21.5234 0.638741
35 1 20.3857 17.1599 20.4867 0.921092
468 2 17.8418 15.773 19.6173 0.561783
539 2 19.7352 13.7339 18.6509 1.14745
96 1 24.5647 14.1016 21.7377 1.11514
107 1 24.9253 16.8084 20.5535 0.967855
540 2 22.0619 15.5324 19.8266 1.26305
611 2 24.5147 14.4951 19.1456 1.43888
612 2 27.2431 15.3684 19.0052 1.21719
168 1 29.7084 14.3881 21.4656 1.2839
179 1 29.3365 16.6825 20.2719 0.512616
683 2 29.7688 14.4017 18.0618 0.783625
684 2 31.8299 16.025 19.231 0.706823
240 1 34.3756 14.4096 20.8676 0.803479
251 1 34.3609 17.261 20.374 0.598942
745 2 22.6869 7.78481 -0.218578 1.49006
755 2 34.3414 14.3646 18.3787 1.06928
756 2 36.3529 15.9961 19.4427 0.525295
312 1 38.8186 14.5639 21.4719 1.07984
323 1 39.0452 17.0829 20.3045 0.841587
817 2 27.1966 7.9986 0.0251312 0.560501
827 2 38.5566 14.5058 18.3029 1.09021
828 2 41.4695 15.8592 19.8021 0.583281
384 1 43.6736 14.4471 21.4979 0.93964
395 1 43.3396 17.4557 20.5444 0.823804
467 2 43.188 14.2997 19.0698 1.1376
480 2 21.1764 19.4718 19.3527 1.93346
36 1 22.6236 18.3094 21.3504 0.543477
47 1 22.6336 21.0735 20.6535 1.15188
48 1 25.0891 21.7545 21.532 0.63512
551 2 23.1641 17.9805 18.6358 1.002
552 2 25.0577 19.4192 19.722 0.767535
563 2 24.2852 22.1689 19.171 4.14293
108 1 27.3647 18.1107 21.4623 0.607913
119 1 27.5573 20.7323 20.5969 0.91482
623 2 27.1527 18.3543 18.7426 0.742909
120 1 29.7245 22.3392 21.582 0.633595
180 1 31.9195 18.0711 20.9874 1.05989
191 1 31.8497 20.8402 20.6335 0.63117
624 2 29.5485 19.863 19.5028 0.619786
635 2 30.4377 22.3109 19.0331 2.05003
695 2 32.1855 18.4579 17.9514 2.3509
192 1 34.4688 22.2119 21.2725 0.798121
252 1 36.7806 18.4577 21.1127 0.660499
263 1 36.7368 21.0311 20.3595 0.55825
696 2 34.1826 19.9624 19.2797 1.02527
707 2 34.0569 22.328 18.1215 0.995321
767 2 36.4772 18.5379 18.5803 0.705123
264 1 38.6609 22.3633 21.3753 0.62145
324 1 41.0615 18.7177 21.4918 0.594137
335 1 41.2332 21.1712 20.5629 0.535381
757 2 24.6514 11.8562 0.0379212 1.12493
768 2 38.8489 19.6011 19.5058 0.729391
779 2 38.6874 21.8584 18.4805 0.893746
839 2 41.0845 18.6031 18.7383 0.66283
336 1 43.4224 22.5083 21.3131 0.691875
396 1 45.6987 18.3035 21.534 0.700171
407 1 45.8889 20.9626 20.6538 0.763056
479 2 45.4357 18.3435 18.6338 0.52716
829 2 29.5097 11.7779 0.0420083 0.585011
840 2 43.2919 19.8063 19.4726 0.486046
851 2 43.1313 22.7737 18.0928 1.5328
408 1 48.0778 22.237 21.5105 0.669996
491 2 20.5042 22.0286 18.8373 0.80453
59 1 25.0203 24.3826 20.7633 1.0021
492 2 22.831 23.5769 19.2868 2.56485
503 2 50.226 26.4896 18.8725 2.02982
60 1 26.8533 25.924 21.1568 0.978815
564 2 27.9565 23.4344 20.0135 0.954328
575 2 27.6975 26.1282 18.5336 0.69247
131 1 29.7176 25.1359 20.5767 0.670524
132 1 31.8749 26.6218 21.3875 0.537073
636 2 32.5535 23.4734 19.5707 1.44555
647 2 31.9166 26.5288 18.7432 0.750139
203 1 34.2362 25.0231 20.2816 0.87664
204 1 36.4994 26.3498 21.0824 0.964115
708 2 36.0505 23.2075 19.4088 1.21131
719 2 36.4548 26.2959 18.2806 1.0947
275 1 38.7788 24.6967 19.8674 1.20532
276 1 41.229 26.2586 21.4904 0.984161
769 2 41.1278 23.8418 22.0029 0.876314
780 2 40.8442 23.5547 18.9769 2.47059
791 2 40.8463 26.3034 17.5768 3.11703
347 1 43.4247 25.0433 20.4085 0.818352
348 1 46.1085 26.6271 21.3953 0.875784
841 2 31.6114 15.8247 -0.274185 0.780122
852 2 45.5613 23.5442 19.5243 0.623954
863 2 45.5655 26.14 18.5056 0.806915
419 1 48.4477 24.9157 20.2224 0.984844
420 1 50.5659 26.1225 21.1989 0.912998
504 2 25.1609 27.4953 19.5905 1.06958
71 1 27.4578 28.9511 20.4696 0.589225
72 1 29.751 30.1246 21.6023 0.552855
143 1 32.0618 29.5174 20.4315 0.668411
576 2 29.6243 28.0046 19.4568 0.870622
144 1 34.6355 30.2448 21.2057 0.793054
215 1 36.9664 28.8921 20.2242 0.901965
648 2 33.9164 27.6456 19.5618 0.482231
216 1 39.2381 30.0469 21.6135 0.877447
287 1 41.3719 28.9772 20.5183 0.762361
720 2 39.4584 27.3085 19.4136 1.08603
288 1 43.8564 30.4811 21.3577 0.958663
359 1 45.5209 28.6208 19.9871 1.08854
781 2 29.7384 19.7762 -0.184054 0.846905
792 2 42.7727 27.3594 18.9581 1.53539
360 1 48.2524 30.5297 21.1707 0.831074
431 1 50.3488 29.0591 20.141 0.707004
853 2 34.8098 19.3529 -0.210645 1.39096
864 2 48.4151 27.5092 19.3824 1.34093
432 1 52.5149 30.18 21.4763 0.739648
ITEM: TIMESTEP
225
ITEM: NUMBER OF ATOMS
864
ITEM: BOX BOUNDS xy xz yz pp pp pp
-3.9646328289302063e-01 5.5144016495670343e+01 1.3900656872677782e+01
-3.6649822077917221e-01 3.1730680658463424e+01 1.3891973980441556e+01
-3.3844828445090985e-01 2.2347050230283973e+01 8.0205349171832161e+00
ITEM: ATOMS id type x y z f_grace_gamma
433 2 13.7403 7.95931 22.0772 0.70178
434 2 1.86037 0.921585 0.78891 1.05745
435 2 16.1875 24.9442 3.29411 0.851898
445 2 2.29131 3.88652 0.191846 0.831577
1 1 4.57068 1.88473 1.5674 0.769618
2 1 6.94325 3.6638 2.93238 0.941242
505 2 3.96972 -0.271413 -0.286022 1.04875
506 2 6.66307 0.695447 0.743809 1.11984
507 2 20.3964 24.6728 3.58363 0.871572
517 2 6.15157 3.03775 -0.333144 1.02993
73 1 8.84041 2.2201 1.72226 1.17806
74 1 11.1843 3.09859 2.66965 0.97264
577 2 23.4523 7.53478 21.9715 1.23845
578 2 11.0798 1.02536 0.88745 1.07938
579 2 25.3024 24.6147 3.38165 1.00914
589 2 24.5399 11.8168 22.2944 1.0413
145 1 13.6747 1.97503 2.05996 0.957173
146 1 16.037 3.5189 2.37528 0.658083
649 2 27.9318 23.2028 0.285843 1.37099
650 2 15.6464 0.532932 0.945678 2.05891
651 2 29.7842 24.3901 3.43744 0.79873
661 2 15.7832 3.06122 -0.131102 1.68236
217 1 18.2318 2.74716 1.37623 0.979386
218 1 20.4927 3.63921 2.51323 0.693979
722 2 20.4576 1.11378 0.441548 0.774017
723 2 20.4271 1.10298 3.11388 0.704083
289 1 22.7315 2.44827 1.01565 0.828389
290 1 25.1093 3.81406 2.52105 0.698682
794 2 24.9149 0.922751 0.486651 0.987021
795 2 25.3403 1.10738 3.46281 0.954152
361 1 27.4049 2.27973 1.44804 1.3322
362 1 30.334 3.65844 2.59865 0.679981
13 1 6.8375 6.35349 1.47784 0.698673
446 2 4.43465 5.27356 1.00484 0.691584
447 2 5.0138 4.99331 3.59018 1.3056
457 2 18.708 15.6357 22.1017 0.885431
14 1 9.13956 7.40255 2.48465 0.918916
85 1 11.3098 6.26937 1.54653 0.817324
518 2 8.60365 4.55256 0.691084 0.938419
519 2 9.25501 4.97365 3.34202 0.591238
529 2 8.62873 7.85982 -0.18633 1.25859
86 1 13.5219 7.63223 2.7002 0.887848
157 1 15.7783 6.42061 1.30177 0.899697
590 2 13.4241 4.27465 0.410812 1.22552
591 2 13.3717 4.85527 2.89367 0.871705
601 2 13.6809 7.77224 -0.293018 1.0699
158 1 17.6324 7.91378 2.08947 1.07232
229 1 19.8566 6.53142 1.39864 0.893273
662 2 18.0325 5.24482 0.261392 1.13019
663 2 18.1703 4.94941 3.02103 0.877268
673 2 31.8385 15.9203 21.9343 0.793707
230 1 22.5528 7.40991 2.61859 1.15025
301 1 25.2323 6.35898 1.50124 0.728597
734 2 22.2425 5.18051 1.06353 0.968858
735 2 22.4756 4.58896 3.92408 1.40848
302 1 27.2811 7.87715 2.56291 0.587752
806 2 27.4418 4.92568 0.985034 0.729544
807 2 27.3923 5.17572 3.45173 1.23601
373 1 30.0051 6.36496 1.49552 0.827629
374 1 32.0374 7.30673 2.75985 1.08427
458 2 6.42664 9.62694 0.904313 2.21833
25 1 8.85297 9.8901 1.34229 1.28115
26 1 10.9898 11.7144 2.7536 0.585683
470 2 8.45687 12.6487 0.55603 0.863162
471 2 36.5442 13.1212 3.361 0.744246
530 2 11.1455 8.73349 0.402873 0.718114
531 2 11.2124 8.90084 3.03828 0.811302
541 2 10.9397 11.0492 -0.216612 0.816267
97 1 13.3126 10.3673 1.52391 0.906567
98 1 15.8281 11.4191 2.29549 0.729868
542 2 13.5079 12.6903 0.962415 1.10849
543 2 13.4912 12.5566 3.07921 1.38604
602 2 15.3895 9.01014 0.470958 0.936458
603 2 15.8156 8.53995 3.79494 1.13782
613 2 29.4619 19.3783 22.309 1.03675
169 1 18.2904 10.1769 1.3903 0.73943
170 1 20.2334 11.705 2.33449 0.944927
614 2 17.9565 12.7826 0.496013 1.29858
615 2 17.6939 12.4727 3.56264 2.01755
674 2 20.0827 8.60212 0.247744 1.12438
675 2 20.042 8.90489 2.98511 0.980635
685 2 20.422 11.2621 -0.240812 0.95441
241 1 22.8807 10.1262 1.44262 0.87042
242 1 24.8867 11.7449 2.37106 0.807341
686 2 22.0294 12.5917 0.765134 1.45913
687 2 22.3158 13.4467 3.74912 1.22312
746 2 25.6492 9.5554 0.556549 1.97206
747 2 25.3322 9.18631 3.77226 1.30164
313 1 27.3869 10.5272 1.66519 0.680528
758 2 27.4009 13.1486 0.657869 1.23443
759 2 26.8785 12.7797 3.68508 0.632203
314 1 29.3847 12.007 2.50868 0.894879
385 1 31.9049 10.6846 1.97413 1.51617
818 2 29.8011 9.15855 0.600529 0.748364
819 2 29.5007 8.75165 3.3367 0.761962
830 2 32.3179 13.0782 0.508508 1.46055
831 2 32.2427 12.9288 3.40736 1.44203
386 1 34.4813 11.4257 2.40695 1.22909
459 2 33.9189 8.9705 3.42307 1.0766
469 2 20.4831 19.4093 21.7064 1.32911
37 1 11.0009 13.8754 1.35607 0.943201
482 2 10.7197 16.4096 0.741185 1.17068
38 1 13.2529 15.5628 2.80138 0.898022
109 1 15.6199 14.0411 1.86351 0.837419
553 2 13.962 15.3528 0.0380123 0.967719
554 2 16.2998 17.2234 0.617321 0.817391
555 2 15.3319 16.9429 3.59646 0.858275
110 1 17.6883 15.491 2.38098 1.12621
181 1 20.3255 14.3181 1.42169 1.24554
625 2 32.2603 23.6359 21.98 1.25809
626 2 20.1594 16.5385 0.845323 1.89545
627 2 20.327 17.3612 3.34281 1.04949
182 1 22.3899 15.5235 2.19598 1.25321
253 1 24.6719 14.3358 1.44037 0.737432
697 2 36.1913 23.78 22.3218 0.89195
698 2 24.5667 16.8874 -0.189275 0.901573
699 2 25.2295 17.3039 3.32631 1.83041
254 1 27.475 15.5345 2.66786 1.42997
325 1 29.5427 14.3232 1.68823 1.27571
326 1 32.3763 15.344 2.52951 0.670459
770 2 30.0779 16.8532 0.453632 1.85705
771 2 29.9475 16.8884 3.5553 0.6734
397 1 34.6915 14.1333 1.83834 0.904036
398 1 36.6964 15.8501 2.88454 0.93199
481 2 36.3031 15.3744 -0.0111642 1.30846
842 2 34.2005 16.7419 1.08834 1.04773
843 2 34.4281 16.7386 3.54946 2.08701
483 2 11.3433 17.1084 3.66246 0.787048
493 2 11.3999 19.8079 -0.278862 0.886961
49 1 13.6169 18.0177 1.39645 1.23075
50 1 15.751 19.6648 2.43882 0.760248
61 1 15.6196 22.2319 1.5833 1.30762
494 2 13.6237 21.4543 0.527448 1.53022
495 2 13.7443 20.4949 3.968 1.51236
565 2 29.4371 27.3431 22.1914 0.993749
121 1 18.3798 18.301 1.55668 1.47816
122 1 20.6278 19.8519 2.79567 1.29226
133 1 20.4837 22.2935 1.73055 0.864225
566 2 18.1113 21.207 0.395304 0.706521
567 2 18.4765 21.076 3.62438 0.893058
637 2 20.1504 19.5964 0.122516 1.12586
193 1 22.2385 18.0546 0.989433 1.06037
194 1 24.5402 19.3509 2.37389 1.14389
205 1 25.2699 22.2431 1.65682 0.841993
638 2 22.8677 21.1815 0.229842 0.564166
639 2 22.7262 21.4099 3.10919 1.51666
709 2 25.2604 19.5944 -0.179105 1.00276
265 1 26.836 17.8494 1.27867 0.802256
710 2 27.3266 20.7481 0.581682 1.98018
711 2 26.9045 20.1012 3.19215 0.870522
266 1 29.3506 19.2906 2.25536 1.21095
277 1 29.7508 22.0238 1.68912 0.835781
337 1 31.9385 18.3369 1.51238 1.08614
782 2 32.5246 21.2944 -0.0215513 1.09491
783 2 31.6902 20.6712 3.13935 1.35181
338 1 34.0906 19.8389 2.66401 1.3849
349 1 34.3518 22.4719 1.61625 1.00641
409 1 36.8103 18.7813 1.41332 1.3673
854 2 36.8038 21.7124 0.324408 0.777568
855 2 37.1052 20.996 2.87952 0.699506
410 1 39.5034 20.0175 2.52223 1.1198
421 1 39.0394 22.5068 1.6396 1.05076
62 1 18.2673 23.5246 2.53472 1.04186
134 1 22.8219 23.7564 2.53326 0.899913
206 1 27.3521 23.2967 2.84137 1.86191
278 1 32.0109 23.6492 2.66546 1.12157
350 1 36.8762 24.0382 2.26057 0.854113
422 1 41.3025 23.0509 2.77611 1.26455
3 1 7.02313 4.09281 5.65982 0.802239
436 2 4.70653 2.73385 4.5384 0.808637
437 2 4.50339 2.66028 7.00958 0.69745
438 2 7.04976 3.74 8.65553 1.12049
75 1 11.4512 3.71957 5.52337 0.733235
508 2 9.0866 2.5055 4.57266 0.767452
509 2 8.85094 2.41094 7.22673 0.894061
510 2 11.6926 3.63523 8.41431 0.68143
147 1 16.3762 3.54014 5.18272 1.15607
580 2 13.7842 2.4913 4.37904 1.15607
581 2 27.7559 26.0154 7.35257 1.08162
582 2 16.0268 3.78737 7.84314 0.618149
219 1 20.5615 3.20835 5.02898 1.42634
652 2 17.9435 2.41288 3.81545 2.21815
653 2 32.0237 26.1291 6.65845 0.921857
654 2 20.2096 3.81283 7.51185 1.05856
291 1 25.4 3.95079 5.21394 0.923935
724 2 23.2542 2.47743 3.56435 1.35291
725 2 22.6162 2.51078 7.06218 0.971119
726 2 25.2802 3.70727 7.74464 0.896352
796 2 27.7821 1.8175 3.81721 1.77826
797 2 41.5981 26.2434 7.35482 0.569781
363 1 29.6904 3.82762 5.41769 0.875585
798 2 30.0089 3.94623 7.85631 0.847
448 2 7.18338 6.13041 4.28758 1.85885
449 2 34.4862 6.41255 7.738 1.13988
4 1 9.5099 5.02566 6.5042 1.84998
15 1 9.20207 7.17543 5.1995 1.36031
450 2 9.19642 7.37521 7.68528 2.29247
520 2 11.7149 6.02469 4.39667 0.821825
521 2 11.98 6.31556 7.10384 0.901897
76 1 14.1489 4.69008 6.09999 0.988959
87 1 13.4364 7.6827 5.04914 1.20726
522 2 13.7661 8.10181 7.55628 2.02814
592 2 15.8278 6.03301 3.89823 0.645152
593 2 16.0417 6.33985 7.88676 0.977588
148 1 18.1867 5.2308 6.2484 0.803957
159 1 17.8097 7.57315 5.49215 0.969324
594 2 17.9908 7.66013 8.67808 1.05702
664 2 20.2152 6.01534 4.49384 0.758254
665 2 20.1517 6.57892 7.15884 1.73348
220 1 22.9457 5.09094 6.44052 0.968866
231 1 22.4511 7.44217 5.27865 0.678392
666 2 23.1404 7.1101 7.82195 1.24455
736 2 24.7112 6.48399 4.5772 0.992329
737 2 25.4476 6.31801 7.46228 0.554408
292 1 27.5202 5.33183 5.9582 1.24633
303 1 27.1303 7.69325 5.10276 0.601024
738 2 27.8036 7.6523 8.46148 0.959138
364 1 32.2379 5.21072 6.06899 0.682548
375 1 31.8321 7.6573 5.24708 1.1418
808 2 29.5972 6.08344 4.6027 1.03419
809 2 29.654 6.20945 7.4553 1.10375
810 2 32.0616 7.4234 8.5926 0.825583
16 1 11.3094 9.22092 6.14163 0.829554
27 1 11.0747 11.7013 5.53442 1.23748
460 2 9.10528 9.7644 3.94245 1.29718
462 2 11.7085 12.7477 7.99941 3.05016
28 1 13.5065 13.5276 5.574 1.24711
88 1 15.9131 9.07371 6.48629 1.05408
99 1 15.8996 12.0598 5.30239 0.97149
532 2 13.8373 10.2853 4.37071 0.801413
533 2 13.7618 10.4276 6.75164 0.768692
534 2 15.4642 11.7179 8.40721 2.05337
100 1 18.2295 13.1906 5.89447 1.23486
160 1 19.87 9.02732 6.44375 1.47071
171 1 20.3802 11.1949 5.39245 1.62621
604 2 18.258 9.99338 4.32925 1.05211
605 2 17.9382 10.6869 7.34925 1.21686
606 2 20.7116 11.6997 8.23239 0.875518
172 1 22.8221 13.0118 6.55101 0.931939
232 1 24.6727 8.73047 6.38674 0.784753
243 1 25.0909 11.2665 5.44476 0.66332
676 2 23.1282 10.2911 3.9668 1.30094
677 2 22.5112 10.1393 6.89177 1.07016
678 2 24.7437 11.5064 8.25687 0.816874
244 1 27.2193 12.5955 6.73969 0.927701
748 2 27.5303 10.3877 4.63249 0.770541
749 2 27.1978 10.2533 7.52912 0.850527
304 1 29.6883 8.89664 6.18663 0.925803
315 1 29.6342 11.6771 5.46719 1.40215
316 1 31.885 12.885 6.54772 0.810557
750 2 29.3323 10.9955 8.67833 0.775533
820 2 31.7805 10.0705 4.393 1.17407
821 2 31.5855 10.3317 7.14441 0.694154
376 1 34.079 9.03935 5.98699 3.24361
387 1 33.9073 11.5961 4.90637 1.43701
388 1 36.9403 13.0985 6.44187 2.01679
461 2 9.23831 10.0762 7.1185 1.89285
822 2 34.0135 11.6669 8.07892 0.703738
472 2 10.9944 13.9441 4.11781 0.97051
39 1 13.0097 16.0164 5.24409 1.33729
40 1 15.3846 16.9409 6.50022 1.03129
474 2 13.2721 15.9104 7.98813 1.31209
544 2 15.2923 14.7879 4.53365 1.18229
545 2 16.099 13.8742 7.43383 1.3338
111 1 17.8519 16.0073 5.33581 0.661735
112 1 20.1213 17.1587 6.12947 0.804876
546 2 17.7552 15.4249 8.20791 1.15906
616 2 20.1118 14.8228 3.91388 1.89998
617 2 20.3159 14.7464 7.55779 1.78963
183 1 22.5172 15.4375 5.41985 1.55461
184 1 25.2185 16.4624 6.51888 0.802097
618 2 22.3534 15.5087 7.74298 3.03973
688 2 24.7892 14.0886 4.31325 0.957191
689 2 25.261 13.8426 7.15677 1.12652
255 1 27.5755 15.3849 5.74747 0.821605
690 2 27.2742 15.6415 8.59752 0.923776
256 1 30.0022 17.0987 6.52823 0.991514
327 1 32.0649 15.5798 5.35987 0.965705
760 2 29.8797 13.921 4.2239 0.960552
761 2 29.863 13.8306 7.0011 1.4124
762 2 31.3186 15.686 8.41366 0.944329
328 1 34.6149 17.1135 5.81652 1.10966
399 1 37.0201 15.7778 5.52501 0.801751
832 2 34.7266 14.1862 4.7433 0.834811
833 2 34.2196 14.4583 7.41883 1.43176
834 2 37.22 15.6482 8.01422 1.08228
400 1 38.7951 17.6965 6.45958 1.08127
473 2 11.6025 14.5054 6.95688 2.52998
51 1 16.1469 19.7271 5.45419 0.84093
484 2 13.5097 18.4669 4.84641 2.25124
486 2 15.8989 19.7534 7.95937 0.923079
496 2 15.9712 21.7832 4.02193 1.64077
52 1 18.2499 21.2762 6.39047 0.764172
123 1 20.694 19.8882 5.87607 0.999437
556 2 17.9073 18.2867 4.09546 1.0786
557 2 17.8425 18.2794 7.61915 0.821352
558 2 19.7407 19.5934 8.9793 1.31661
568 2 20.5627 21.986 4.19011 1.37049
569 2 20.5453 21.893 7.62124 1.32592
124 1 22.8822 21.3135 6.44652 0.980875
195 1 24.721 19.2658 5.55799 1.11617
628 2 22.6302 18.2989 4.59903 0.980606
629 2 22.0487 18.1703 7.2877 1.05798
630 2 25.3459 18.9734 8.16368 1.53821
640 2 24.7099 21.9383 4.59497 0.961364
641 2 25.0096 22.6046 7.36717 2.03637
196 1 27.9735 20.743 5.92717 2.67448
700 2 27.3896 18.1724 4.52241 2.09662
701 2 27.811 17.974 7.13393 1.11683
267 1 30.2906 19.597 4.94248 1.42924
268 1 32.4419 21.0334 6.07015 0.83706
702 2 30.229 19.7801 7.82049 0.763328
712 2 30.2216 22.4241 4.66787 0.802628
713 2 29.2306 22.9868 7.4185 2.19348
772 2 32.2272 18.1188 3.833 0.727458
773 2 32.2651 18.1911 6.54127 1.69015
339 1 34.6836 19.798 5.19501 1.23919
340 1 36.7664 21.2333 6.07573 0.848954
774 2 34.566 19.984 8.35507 0.55022
784 2 34.8342 21.8071 4.09555 3.2681
785 2 34.1597 22.6801 7.06958 1.02332
844 2 36.9762 18.5332 4.46191 0.798267
845 2 36.5861 18.3092 7.37761 0.947106
411 1 38.9011 20.0024 5.3079 0.659228
412 1 41.4596 21.0411 6.69943 0.780311
485 2 41.4478 18.4521 7.73432 0.632705
846 2 39.1461 20.1012 8.00598 0.572907
856 2 39.1895 22.6103 4.90033 0.882653
857 2 38.631 22.9803 7.02604 0.922314
497 2 43.4771 22.6032 7.15139 0.75658
63 1 18.1625 23.9497 5.12084 0.695652
64 1 20.2525 24.8361 6.39352 1.04344
498 2 17.9029 23.5401 8.32139 0.728408
135 1 22.9541 24.0525 5.92342 0.77469
136 1 25.4218 24.9873 6.73255 0.97969
570 2 22.5316 23.8831 8.27932 0.732723
207 1 27.4368 23.8687 5.37159 1.21552
642 2 27.5221 23.7762 8.80126 1.76872
208 1 29.5331 25.1792 6.20312 1.02587
279 1 32.3717 23.9031 5.33229 0.864427
714 2 31.7698 23.716 7.99178 0.562457
280 1 34.8048 25.0648 5.69445 1.53318
351 1 37.0802 24.0988 5.04514 0.843289
786 2 36.0608 23.8391 7.56182 1.57824
352 1 39.0658 25.5859 6.38205 0.826175
423 1 41.498 23.9212 5.46219 0.602258
858 2 41.2082 23.7664 8.43736 0.615102
424 1 43.884 24.91 6.30724 0.991592
439 2 47.5463 27.6754 11.093 1.86222
511 2 24.8967 27.5647 11.292 0.802324
583 2 29.6963 27.6897 11.2639 1.24642
655 2 20.7455 3.64799 10.976 1.99285
727 2 24.6829 3.67353 10.6807 0.963889
799 2 29.8984 3.53817 10.646 1.21596
5 1 9.16885 5.17169 8.78677 1.34289
6 1 11.1689 6.6047 9.88645 0.710116
7 1 10.892 6.22882 12.647 0.969245
440 2 8.38143 4.52421 10.9822 1.98668
451 2 36.0466 7.62521 10.8909 1.02901
77 1 13.7069 5.26787 8.79802 1.1374
78 1 15.7984 6.43222 10.6074 1.10919
79 1 15.9334 6.72721 13.089 1.63519
512 2 13.3827 5.1609 12.0171 0.828108
523 2 13.5713 7.96018 10.1458 0.943519
149 1 18.0403 4.81098 9.309 0.66657
150 1 20.6522 5.8744 9.82583 0.706559
151 1 20.6432 6.04449 12.5575 0.803271
584 2 18.2772 5.33245 11.946 0.438099
595 2 17.9132 7.72491 11.0391 1.19457
221 1 22.6994 4.73618 9.12137 0.852394
222 1 25.3849 6.5906 10.1792 1.039
223 1 25.3525 6.37412 12.7881 0.744937
656 2 23.039 4.79791 11.6159 1.32534
667 2 22.8907 7.13351 10.6991 1.31936
293 1 27.6308 4.82165 8.9265 0.732882
728 2 26.9588 4.59882 11.398 1.67212
739 2 27.4546 7.57883 11.43 0.914045
294 1 29.7001 5.75828 10.1643 1.069
295 1 29.6262 6.18186 12.8224 0.79975
365 1 32.2433 4.70279 9.00547 0.954916
800 2 32.2255 4.98928 11.849 1.48063
811 2 31.4929 7.76671 11.364 0.77355
366 1 33.9349 6.34503 10.188 0.848843
367 1 34.5752 5.85551 13.0026 1.46935
17 1 10.9985 9.04158 8.80425 1.37518
452 2 11.1301 8.61582 11.7061 0.862047
463 2 38.5559 11.7078 10.928 0.90311
18 1 13.4926 10.8366 9.67334 0.956069
19 1 13.5798 10.4062 12.1084 1.49385
29 1 13.902 13.6143 8.89203 1.22917
89 1 15.6514 8.90778 8.9495 1.04337
464 2 13.3913 12.8345 12.0817 1.33059
524 2 15.8167 9.18415 12.2644 1.22882
535 2 15.607 12.2358 11.2111 1.21641
90 1 17.8534 10.0945 9.8204 1.39159
91 1 18.1512 10.2074 12.5574 1.09677
101 1 18.0362 13.1374 8.94272 1.29534
161 1 20.6389 8.49669 8.52571 1.31619
536 2 18.4344 13.5058 12.3673 0.836039
596 2 20.9739 8.45984 11.2351 2.44435
607 2 20.3779 10.6843 10.8212 1.93432
162 1 22.542 10.291 9.57853 0.780417
163 1 22.6582 10.3958 12.6382 0.696526
173 1 22.5655 13.0249 9.29772 1.00108
233 1 24.7499 8.85492 8.88904 0.773785
608 2 21.6578 13.2389 12.1401 3.27506
668 2 24.5768 8.916 11.8079 0.702946
679 2 24.5012 11.9863 10.8461 1.08881
234 1 27.0896 9.97479 10.4196 0.754859
235 1 27.2644 10.2452 13.2321 1.11318
245 1 26.975 12.7553 9.2392 0.902915
680 2 27.0322 13.4445 12.1629 0.813149
305 1 29.7753 8.78697 9.40448 1.21112
306 1 31.6639 10.5295 10.1775 0.854138
307 1 32.0908 10.5575 13.2135 1.73749
317 1 31.6183 13.0243 9.18317 0.730532
740 2 29.7754 9.67104 12.9077 2.07458
751 2 29.2953 11.9645 11.1361 0.78333
752 2 32.3208 13.0559 12.1703 0.698989
377 1 34.0163 8.70503 9.149 1.16662
378 1 36.1994 10.379 9.86576 0.990021
379 1 36.8937 10.4451 12.852 0.922781
389 1 36.5903 12.8282 9.25961 0.692894
812 2 34.0229 8.89258 11.9758 1.05313
823 2 34.5491 12.1753 10.718 1.21386
824 2 36.4733 13.3015 11.9728 0.788541
30 1 15.9445 14.4488 10.2168 1.08924
31 1 15.4407 14.4447 13.0786 0.757979
41 1 15.3832 16.9054 9.38119 0.845754
476 2 15.8296 16.8403 11.8019 1.89996
102 1 20.4258 14.3627 10.1654 1.33512
103 1 20.6128 14.8222 13.7792 1.21986
113 1 19.9415 17.2199 9.43197 0.658882
547 2 18.6359 16.0421 11.6006 2.25457
548 2 20.2685 17.6697 12.9991 1.6141
174 1 24.9779 14.5437 9.99761 1.03581
175 1 24.7892 14.517 13.1719 1.4755
185 1 24.2299 16.7918 8.9458 2.12648
619 2 22.6807 15.449 11.948 1.97606
620 2 24.5052 17.9387 10.8626 7.26937
691 2 26.6246 15.8449 11.4594 1.4952
246 1 29.1039 14.4334 9.8883 0.934556
247 1 29.97 14.9198 12.8193 1.01964
257 1 29.4538 17.2077 9.14281 1.55118
692 2 29.7081 17.5914 11.7306 1.7908
763 2 31.8528 15.2454 10.7305 1.19882
318 1 34.4396 14.6491 9.84343 0.975412
319 1 34.4427 14.8244 13.0958 0.963379
329 1 34.2717 17.1838 8.6974 1.06816
764 2 34.6233 16.8515 11.6294 0.819586
835 2 37.5279 15.6651 10.6908 1.44091
390 1 39.2264 14.0558 10.0493 0.884679
391 1 38.9348 14.2767 12.9392 0.751608
401 1 38.8269 17.3914 9.29036 0.739302
475 2 13.5831 15.3687 11.429 1.08862
836 2 38.9612 17.2515 12.4365 1.08131
42 1 17.6628 18.0666 10.3718 1.31007
43 1 17.4094 18.1715 12.9713 0.934987
53 1 17.5896 21.1586 8.99619 1.26263
54 1 20.5928 22.1774 10.2676 0.894696
55 1 20.0935 22.1099 12.9397 0.718348
488 2 17.7393 21.179 11.9444 0.776095
559 2 19.6239 19.4273 11.5833 1.87624
114 1 21.9569 18.5727 10.4104 1.6374
115 1 22.5574 18.7027 13.1431 0.90634
125 1 22.7458 21.032 9.17607 1.01752
126 1 25.3045 22.3173 9.80488 0.833966
127 1 25.6627 21.9818 13.1086 1.49706
560 2 23.2662 21.4397 11.9741 1.58657
631 2 25.3444 19.6403 11.6022 2.37904
186 1 27.3582 18.3858 10.0121 0.914896
187 1 27.3094 18.274 12.7259 0.873558
197 1 27.4154 21.0448 8.95416 1.12652
632 2 27.5911 21.1885 11.5326 1.26859
198 1 29.9023 22.2433 9.90045 0.979429
199 1 29.6612 22.3077 12.7009 0.857654
258 1 31.8385 18.1071 10.4238 1.60897
259 1 31.8483 18.5842 12.857 1.31828
269 1 32.2119 21.3101 9.25582 1.20023
703 2 30.0608 19.5234 10.6812 1.60862
704 2 32.2818 20.9986 12.1755 1.52584
270 1 34.4235 22.7862 9.8685 0.808814
271 1 34.0968 22.9612 12.4903 1.07087
330 1 36.5357 18.3542 9.87294 0.95494
331 1 36.2231 18.5364 13.3611 1.1291
341 1 36.8339 21.4196 9.18178 0.768917
775 2 33.7196 19.3865 10.7816 2.17011
776 2 35.4922 20.9056 11.2534 2.73837
342 1 38.9507 22.5133 9.94036 1.06718
343 1 38.6199 22.2869 12.6113 0.975799
402 1 41.0632 18.3138 10.3392 0.809023
403 1 41.211 18.393 13.4055 0.893118
413 1 41.4706 20.8269 9.38942 0.882287
847 2 38.8579 19.8632 10.7091 0.789034
848 2 41.4782 20.9268 12.2484 0.878619
414 1 43.3553 22.3485 10.1465 0.997315
415 1 43.3608 22.6678 12.6607 1.43413
487 2 15.5386 19.4846 10.4751 1.70405
65 1 20.3674 24.9462 9.39864 0.785962
500 2 20.3696 24.7433 12.405 0.691356
66 1 22.606 26.4312 10.0891 0.874917
67 1 22.7943 26.3643 13.1305 1.00189
137 1 25.0242 25.0185 9.68843 0.77069
571 2 23.3588 23.7011 11.1207 1.08269
572 2 25.1423 25.1799 12.6921 0.85197
138 1 27.4577 26.9116 10.0504 1.08372
139 1 27.4892 26.7949 12.5316 1.13829
643 2 27.2639 24.0391 11.1467 1.41602
209 1 29.5657 25.351 9.48761 1.03843
210 1 31.8956 26.4473 9.85275 1.11165
211 1 31.8438 26.6323 12.8263 0.809673
644 2 29.2829 24.9966 12.9433 1.96484
715 2 31.3633 23.8451 10.9103 1.42873
281 1 34.1049 25.0371 8.47752 0.579008
282 1 36.4994 26.2397 9.8774 0.835603
283 1 36.3247 26.5962 12.5395 1.28983
716 2 33.7096 25.4545 11.2337 1.24799
787 2 36.5716 23.8831 10.8728 1.22754
353 1 38.9335 25.0239 9.02419 0.462057
354 1 41.0771 26.6798 10.1085 0.802557
355 1 40.662 26.4838 12.5847 1.45532
788 2 38.6042 25.1548 11.4081 2.66957
859 2 41.0243 23.8661 11.0352 0.89673
425 1 43.3265 25.0196 9.40008 0.879337
426 1 45.8709 25.9335 9.86888 0.636746
427 1 46.0234 26.3712 12.8159 1.07511
499 2 18.4839 23.7304 11.2723 0.7592
860 2 43.7455 25.2495 11.9868 1.00368
441 2 49.8399 28.9601 15.1966 1.14448
442 2 11.1616 5.97311 15.733 0.700454
8 1 13.2397 7.74999 13.5597 0.651462
9 1 13.6642 7.48564 16.4967 0.907544
513 2 13.5931 5.34056 14.4724 0.831159
514 2 15.8919 6.267 16.8165 3.32738
80 1 18.3637 7.75796 13.6991 1.06939
81 1 18.2493 7.35363 16.3108 1.07536
585 2 17.9568 5.3071 14.6199 1.04243
586 2 20.2525 6.54037 15.4171 0.779846
152 1 22.6669 7.30707 13.3727 0.723146
153 1 22.5468 7.70945 16.7072 1.33381
657 2 22.6243 5.08701 14.8784 0.885462
658 2 24.9304 6.51028 15.8069 0.964683
224 1 27.2896 7.88624 14.1138 0.869014
225 1 27.2467 7.92652 16.8829 1.57205
729 2 41.1577 28.9414 14.8506 0.994718
296 1 31.2002 7.79616 14.0344 1.37255
297 1 31.9119 7.26636 16.4912 1.72974
730 2 29.343 7.03018 15.5476 2.13265
801 2 31.7285 5.13647 14.3369 0.871214
368 1 36.4226 7.39591 13.916 1.42157
369 1 36.8844 7.72036 16.5074 1.20881
802 2 34.2703 6.67784 15.5707 1.42997
453 2 10.8902 8.49412 14.6386 1.4665
10 1 15.9368 8.99259 17.4524 0.830452
20 1 15.8049 11.6399 13.7095 0.823538
21 1 15.7041 11.6885 16.8131 0.836438
454 2 13.3326 10.6385 14.8295 1.07221
525 2 15.3193 8.49394 14.8084 1.50281
22 1 17.9332 12.7289 17.6061 0.988134
82 1 19.9339 9.06272 17.5967 1.17176
92 1 20.1877 11.9798 13.4911 1.51362
93 1 20.3739 11.2566 16.2465 1.17563
526 2 17.6976 10.0012 15.3431 1.30501
537 2 18.011 13.1387 14.982 0.700449
597 2 20.6941 8.88234 14.0102 1.11421
94 1 22.7075 13.0677 17.9109 1.06506
154 1 25.0494 9.37091 17.5291 1.1531
164 1 24.7723 11.7005 14.0036 0.942565
165 1 24.974 11.9 16.8489 0.975401
598 2 22.4375 10.5157 15.0912 1.47608
609 2 23.1836 13.1752 14.9822 2.22175
669 2 24.8131 8.64659 14.8186 0.920144
166 1 27.4127 13.0408 17.738 1.16298
670 2 26.9469 10.4733 16.2742 1.35466
681 2 27.2981 12.9172 14.9293 0.777605
226 1 29.6596 9.68923 18.411 4.21865
236 1 29.7947 11.9423 14.0394 0.811084
237 1 29.4598 12.0401 16.8613 1.66243
238 1 31.9172 12.3731 17.5975 1.04059
741 2 29.4516 9.35784 15.4082 1.34876
742 2 32.554 9.86804 15.2709 4.44573
753 2 32.004 12.9909 14.9906 0.689372
298 1 34.5986 9.03552 17.3307 0.509346
308 1 34.6462 11.6495 13.4424 0.58425
309 1 34.3143 11.557 16.1685 0.664617
310 1 36.8519 13.2538 17.573 0.776313
813 2 34.4793 9.03258 14.6484 1.66998
814 2 36.7375 10.5245 15.6119 0.707309
825 2 36.7508 13.2045 14.369 1.38617
370 1 38.9073 8.9635 17.0362 0.87835
380 1 39.1417 11.8458 13.4986 0.907836
381 1 39.0121 11.9599 16.5115 0.951876
382 1 41.1282 13.346 18.065 1.29989
465 2 40.9086 13.4015 15.0605 0.613962
466 2 15.5816 14.3602 15.9793 0.612493
32 1 17.8883 15.7019 14.3165 0.658129
33 1 18.3837 15.3358 17.1422 0.836678
34 1 20.3834 16.5505 18.0833 1.12894
538 2 20.7484 13.9071 16.373 1.18269
549 2 20.4891 16.6482 15.5425 1.27318
104 1 22.5949 15.5258 14.848 2.50138
105 1 22.7165 15.4633 17.4654 1.84869
106 1 25.0918 16.2603 17.6331 1.70332
610 2 24.8715 14.3079 15.9287 0.836142
621 2 25.5138 16.6905 14.2227 1.61268
176 1 27.8128 15.616 13.6531 1.31608
177 1 27.6485 15.2176 16.3308 0.784868
178 1 29.5011 17.4771 17.8329 1.71472
248 1 32.1709 16.1526 13.9637 1.18973
249 1 32.3368 15.2179 16.7939 1.42361
682 2 29.8184 14.6204 15.3085 1.38493
693 2 29.3007 17.1167 14.818 0.886126
250 1 34.0692 16.9854 17.3321 1.18617
320 1 36.9502 15.9332 13.6623 1.02887
321 1 36.4951 16.3283 16.9239 0.878976
754 2 34.325 14.371 15.7377 1.03693
765 2 34.9593 17.0002 14.7258 1.67896
322 1 38.917 17.404 17.6301 0.902443
392 1 40.8801 15.9683 13.7299 0.772758
393 1 40.8805 15.7129 17.007 0.740809
826 2 38.1913 14.492 15.4807 1.11802
837 2 38.9449 16.8449 15.2388 1.09023
394 1 43.4682 17.1766 17.7035 0.665561
477 2 43.53 17.0408 14.884 0.860041
44 1 20.3628 19.6143 14.3911 1.39377
45 1 20.2581 19.3632 17.1448 1.62688
478 2 18.1762 17.9823 16.1496 0.725163
490 2 20.1454 22.7935 15.584 1.69446
46 1 22.8062 20.4382 17.7492 1.13687
116 1 24.9843 19.3778 14.076 1.00742
117 1 25.0806 19.503 16.9262 0.879472
550 2 22.7971 18.1671 16.3755 1.22624
561 2 22.6641 20.9104 14.8836 0.969496
562 2 25.3333 21.82 15.7239 0.84982
118 1 27.6783 20.8857 17.7082 0.846149
622 2 26.9417 18.1163 15.9262 0.745819
633 2 27.6304 20.8357 15.0284 1.18236
188 1 29.2984 19.7983 13.4182 1.00211
189 1 29.5756 19.9095 16.1134 0.885988
190 1 31.7095 20.8931 17.6761 1.20533
634 2 29.6175 22.7312 15.0223 0.913391
694 2 32.3653 18.3967 15.6922 1.3932
705 2 31.8637 21.1316 14.6774 0.932975
260 1 34.0341 20.1486 13.4837 1.06463
261 1 34.0988 19.8676 16.4058 1.03591
262 1 36.5999 21.0285 17.1534 1.39515
706 2 34.4928 22.2973 15.474 0.732159
766 2 36.548 18.9218 16.0297 2.81581
777 2 36.9332 21.5101 14.2758 2.04553
332 1 38.7925 19.8554 13.8372 1.04605
333 1 38.6867 20.0232 16.5985 0.720436
334 1 41.0794 21.2305 17.7564 1.022
778 2 39.2223 22.8038 15.3202 1.61348
838 2 41.7423 17.9416 16.0839 1.5538
849 2 41.0904 20.4982 15.1263 1.34708
404 1 43.3349 19.8576 14.0228 1.16065
405 1 44.2512 19.828 16.7413 0.994609
406 1 45.9366 21.3658 17.8926 1.06722
489 2 46.0173 21.1777 15.1486 0.721941
850 2 42.9953 22.1889 15.4934 1.39431
56 1 22.7964 23.852 13.6505 1.08923
57 1 22.8264 22.9926 16.8835 0.970099
58 1 25.1966 24.384 18.0184 0.987074
502 2 23.109 26.4312 15.9672 1.06234
573 2 25.29 24.5321 15.4323 1.1037
128 1 27.3767 23.7299 14.1209 1.08446
129 1 27.5831 23.5459 16.9515 0.817166
574 2 27.6644 26.0883 15.7514 0.924974
130 1 30.0861 24.7304 17.8954 1.49478
200 1 31.8824 23.8763 13.2851 0.953627
201 1 32.0208 23.5851 16.5075 1.04956
645 2 30.363 25.384 15.2963 2.14527
646 2 32.3405 26.6002 15.5746 0.978699
202 1 34.1392 24.8165 17.8627 0.971106
272 1 36.5502 23.9408 13.7552 1.20828
273 1 36.4404 23.6281 16.7688 0.896893
717 2 34.0247 24.9422 14.6116 1.11499
718 2 36.0298 25.97 15.9432 3.61392
274 1 38.7356 25.4011 17.0603 1.26265
344 1 41.1864 23.2651 13.7223 1.04923
345 1 41.2622 23.7685 16.4688 1.86312
789 2 38.4047 25.1959 13.4805 5.96075
790 2 41.5214 25.4218 15.1295 4.89451
346 1 43.1565 25.095 17.5179 0.86968
416 1 46.0986 23.826 13.9513 0.759908
417 1 45.5617 23.7313 16.5996 0.697542
861 2 43.5174 24.267 14.7942 1.97009
862 2 45.436 25.987 15.3494 1.42508
418 1 48.4167 24.9149 17.4679 0.894617
501 2 20.7541 25.1905 14.9337 0.852808
68 1 25.0966 27.8155 14.2737 0.963325
69 1 25.1886 27.3778 17.06 1.33253
70 1 27.5555 28.7799 17.6823 0.826798
140 1 29.6677 28.1123 14.1291 1.0061
141 1 29.9209 27.5094 16.6456 1.15176
142 1 32.2395 28.8489 17.5396 0.775258
212 1 34.0043 28.0844 13.6871 0.923125
213 1 34.6033 27.5912 16.6115 1.03928
214 1 36.8355 29.1435 17.409 1.11245
284 1 38.7238 27.8513 13.4999 1.19503
285 1 38.9188 27.6955 16.4466 2.03422
286 1 41.0377 29.4138 17.6903 0.942657
356 1 43.2959 27.6352 13.5211 1.19956
357 1 43.109 27.7476 16.1157 1.10179
358 1 45.6206 28.6024 17.2482 1.59884
428 1 47.993 27.4598 13.7692 1.48406
429 1 48.2157 27.4005 16.823 0.778115
430 1 50.8637 29.0231 17.5133 1.24729
443 2 25.3001 30.0437 18.4383 0.75752
444 2 13.3987 7.58271 19.3475 0.729742
515 2 16.1114 6.9436 19.1075 1.99985
516 2 17.8082 8.35502 20.0119 1.07735
587 2 34.4056 30.302 18.7558 1.12301
588 2 22.537 7.3535 19.6556 0.8415
659 2 25.4702 6.62721 18.6689 1.7611
660 2 27.7251 7.97697 19.9 0.771169
721 2 18.0163 0.331341 0.107974 1.38163
731 2 43.8976 30.1068 18.673 1.63694
732 2 31.8349 7.59856 19.5437 1.31663
793 2 36.7237 8.18387 21.6786 0.766864
803 2 34.11 6.47181 18.2766 0.639048
804 2 36.8088 7.76991 19.05 1.01063
11 1 15.4969 9.27978 20.409 1.3212
455 2 13.3679 10.3546 18.1186 0.785259
456 2 15.5776 11.6411 19.6109 1.00964
12 1 17.7058 10.4562 21.4045 1.07135
23 1 18.2371 13.0593 20.4726 0.587025
83 1 20.4072 9.1626 20.3687 0.703617
527 2 17.8704 10.2551 18.2613 0.857836
528 2 19.9859 11.4286 19.5077 0.91549
84 1 22.8682 10.1818 21.2337 0.702154
95 1 22.4745 12.6459 20.6318 0.883995
155 1 25.074 8.81703 19.9614 1.48768
599 2 22.6052 10.7409 18.4884 0.805128
600 2 24.5928 11.4366 19.7688 1.70706
156 1 27.4262 9.92018 21.9434 1.08747
167 1 27.3228 12.7813 20.8342 2.30685
671 2 26.9536 11.012 19.3842 1.99911
227 1 30.1673 9.10684 20.699 0.974308
228 1 32.2381 10.7238 21.4509 0.926476
239 1 32.3827 13.2898 20.4122 1.18332
672 2 30.1404 11.9658 20.2656 1.24268
743 2 32.466 10.3042 18.9293 1.46759
299 1 34.3005 9.25735 20.3251 0.864916
300 1 36.6143 10.7244 20.8576 1.16135
311 1 36.601 13.159 20.5076 0.615275
733 2 34.6259 11.9162 22.2285 0.744649
744 2 34.4826 11.6259 19.1027 0.883705
815 2 36.889 10.8296 18.071 0.640155
371 1 38.8279 8.91586 20.1436 1.11413
372 1 41.4094 10.4755 21.5046 1.21581
383 1 41.3797 13.2133 21.0037 0.703348
805 2 38.6774 12.0521 22.2265 1.01445
816 2 38.7232 11.9416 19.3414 1.21366
24 1 20.5838 13.9325 21.5398 1.26535
35 1 20.4223 17.1306 20.4682 1.26011
468 2 17.9119 16.1469 19.7843 1.04731
539 2 20.2422 14.044 18.9666 0.715318
96 1 24.5806 14.3609 21.8536 1.01233
107 1 24.7224 16.8325 20.583 0.825352
540 2 22.5286 15.208 19.8734 0.850613
611 2 24.9869 14.188 19.5392 1.05365
612 2 27.0145 15.4285 19.3483 1.22749
168 1 30.0309 14.4697 21.3785 1.24191
179 1 29.1896 16.8548 20.4656 1.10279
683 2 30.0186 14.3838 18.3941 0.693483
684 2 32.1461 16.145 19.0195 1.08702
240 1 34.5689 14.594 21.2412 0.724214
251 1 34.047 17.4065 20.5117 0.725389
745 2 22.7666 7.73853 -0.231513 1.40634
755 2 34.1796 14.1242 18.2467 0.931867
756 2 36.2465 15.9077 19.3191 0.878384
312 1 39.2053 14.6698 21.6693 0.837543
323 1 39.2513 17.0511 20.1385 0.770252
817 2 41.5777 15.6691 22.1543 0.622171
827 2 38.8924 14.6799 18.9613 0.927434
828 2 41.2727 15.9981 19.5675 1.31697
384 1 44.095 14.4659 21.5719 0.897852
395 1 43.7565 17.6098 20.4804 1.02587
467 2 43.7749 14.7467 19.1829 0.84874
480 2 21.2782 19.2045 19.2746 3.93724
36 1 22.6151 18.1672 21.2503 0.909932
47 1 22.7183 21.1905 20.7029 0.882232
48 1 25.2258 21.6644 21.5101 1.23873
551 2 23.4173 17.7001 18.5671 2.07222
552 2 25.2034 19.8821 19.7474 0.861452
563 2 25.2939 21.9924 18.6383 1.30916
108 1 27.5564 18.4056 21.5163 1.19764
119 1 27.7064 20.9593 20.7453 0.740938
623 2 27.2164 18.406 18.8101 0.872021
120 1 30.0944 22.3367 21.5181 0.772061
180 1 31.6837 18.356 20.8968 0.687581
191 1 31.9045 20.8191 20.777 1.9236
624 2 29.9424 19.6574 19.0011 1.743
635 2 30.3155 22.3563 19.1312 1.83313
695 2 32.2246 18.5319 18.3132 1.55106
192 1 34.5402 21.9961 21.1439 1.11766
252 1 36.8643 18.4029 21.2298 0.898641
263 1 36.9898 20.9379 20.6656 1.17876
696 2 33.9035 20.1787 19.3628 1.12283
707 2 34.3764 22.3115 17.8976 1.77003
767 2 36.2994 18.8352 18.6034 0.853125
264 1 38.9967 22.3789 21.2681 0.92693
324 1 41.439 18.7788 21.437 0.785104
335 1 41.3615 21.3815 20.6736 0.826477
757 2 24.8078 12.2157 -0.297699 1.55609
768 2 38.9925 19.436 19.5912 0.894576
779 2 38.6363 22.0612 18.5121 0.874531
839 2 41.2123 18.4563 18.5862 0.708122
336 1 43.4256 22.7825 21.3116 0.804728
396 1 45.6852 18.3875 21.4395 0.952112
407 1 46.0251 21.0104 20.8142 1.04106
479 2 18.3852 18.5014 18.3225 1.13761
829 2 29.2856 12.0988 -0.0597174 1.45416
840 2 43.6119 20.1019 19.5961 0.725167
851 2 43.5155 22.7493 18.221 0.746182
408 1 48.0905 22.241 21.9036 1.32216
491 2 20.6745 21.8939 18.8539 0.920937
59 1 24.9037 24.0216 20.9067 1.39741
492 2 22.8726 23.5069 19.6751 1.3524
503 2 23.1633 26.8586 18.4996 2.42482
60 1 26.8902 26.0741 21.2051 1.0669
564 2 27.9255 23.5581 20.0801 0.83732
575 2 28.0577 26.0139 18.6176 0.681528
131 1 29.8752 25.2294 20.3821 0.973431
132 1 32.1333 26.5801 21.6225 0.708829
636 2 32.8928 22.7826 19.8252 5.08659
647 2 31.6282 26.2512 18.6901 1.54276
203 1 34.2918 24.9238 20.309 1.15058
204 1 36.6472 26.4905 20.9279 1.20242
708 2 36.4697 23.678 19.1846 1.3092
719 2 36.5528 26.8624 18.1435 1.28656
275 1 38.6117 24.8132 19.7258 1.01545
276 1 41.223 26.335 21.3746 1.19623
769 2 41.0678 23.9075 21.6463 1.88935
780 2 40.7624 23.6123 19.1231 0.91804
791 2 40.8996 26.4891 17.6445 1.72393
347 1 43.4293 25.2013 20.4716 1.17137
348 1 46.1935 26.8043 21.3694 1.24554
841 2 32.2406 15.326 -0.304595 1.90153
852 2 45.9191 23.5489 19.3942 1.22464
863 2 46.1931 26.3131 18.0479 1.34429
419 1 48.6911 25.1174 20.4012 1.30416
420 1 50.8215 26.2481 21.3214 0.977579
504 2 25.7186 27.4782 19.5368 1.87559
71 1 27.6475 28.9021 20.3794 0.756914
72 1 29.8961 30.3064 21.796 0.868691
143 1 32.2368 29.4328 20.3482 0.747213
576 2 29.821 28.2006 19.2187 0.888594
144 1 34.58 30.3572 21.1788 1.33732
215 1 37.1829 28.6053 20.2237 1.67917
648 2 34.0864 27.5832 19.6601 0.654895
216 1 39.6382 30.1679 21.8707 1.48743
287 1 41.6051 29.0952 20.545 0.915922
720 2 39.743 27.738 19.9366 2.14577
288 1 44.3442 30.6159 21.4291 1.27256
359 1 45.3826 28.7521 20.1653 1.79017
781 2 43.4889 27.6183 22.1978 0.849082
792 2 43.0074 27.2355 19.0606 1.22929
360 1 48.329 30.9192 21.1516 1.05534
431 1 50.4303 29.1141 20.0409 1.0144
853 2 48.6713 27.5989 22.3199 0.973619
864 2 48.1403 27.8797 19.6016 0.709358
432 1 52.7112 30.2771 21.3883 0.996928
ITEM: TIMESTEP
250
ITEM: NUMBER OF ATOMS
864
ITEM: BOX BOUNDS xy xz yz pp pp pp
-4.7892166935384001e-01 5.5404092345651335e+01 1.3989428235025105e+01
-4.4337647570050936e-01 3.1858854233813354e+01 1.3980820081614413e+01
-4.1099082228730122e-01 2.2419592768120371e+01 8.0718302376118150e+00
ITEM: ATOMS id type x y z f_grace_gamma
433 2 13.2356 7.4226 22.2805 1.50699
434 2 1.73676 0.650657 0.543977 0.992296
435 2 2.10077 0.852848 3.10736 0.701932
445 2 2.32164 3.88786 0.204493 1.13763
1 1 4.47822 1.72683 1.39637 1.25838
2 1 6.95696 3.73621 2.8744 0.863856
505 2 4.09304 -0.0517723 -0.123431 1.8525
506 2 6.95335 0.488549 0.370506 1.0497
507 2 6.39489 1.26752 3.28956 0.932815
517 2 6.30356 2.99258 -0.306998 1.05574
73 1 8.8789 2.32337 1.9002 0.743362
74 1 11.1705 2.86262 2.71148 1.09825
577 2 23.3887 7.84163 22.5592 2.06929
578 2 11.4522 1.02731 0.506647 1.33579
579 2 24.8328 24.7827 3.52956 1.04855
589 2 10.5977 4.09044 -0.117507 3.33418
145 1 13.611 1.80464 1.89773 0.764489
146 1 16.0542 3.34714 2.44585 1.19078
649 2 28.0197 23.5401 0.208077 1.36996
650 2 16.432 0.787327 0.976142 1.59066
651 2 29.6732 25.005 3.15101 0.716716
661 2 15.8367 3.06691 -0.348174 1.2771
217 1 18.3677 2.56838 1.42982 1.0398
218 1 20.554 3.72771 2.37238 0.770425
722 2 20.5073 1.22829 0.136433 1.198
723 2 20.5035 0.774844 2.56623 0.85319
289 1 22.6968 2.5241 1.04892 0.986561
290 1 25.1332 3.75593 2.4726 1.01142
794 2 24.8392 0.595374 0.301915 1.80219
795 2 39.4986 24.9869 3.55908 1.3374
361 1 27.4867 2.39872 1.45661 2.89898
362 1 30.6955 3.49417 2.81474 1.95196
13 1 6.60849 6.50091 1.56978 1.0362
446 2 4.82557 5.01387 0.940374 1.06232
447 2 4.67534 5.06801 3.59211 1.88459
457 2 18.6999 15.5835 22.4642 1.37082
14 1 9.20461 7.52331 2.26953 0.945952
85 1 11.4618 6.4516 1.75157 1.54408
518 2 8.4552 4.89353 0.493326 1.51164
519 2 9.47742 5.03868 2.85766 1.22334
529 2 8.25806 7.64955 -0.134576 1.35155
86 1 13.4012 7.56899 2.40554 1.22005
157 1 15.4845 6.54136 1.29084 1.52969
590 2 12.7702 4.1719 0.720545 2.26766
591 2 13.7397 4.32749 3.02672 1.04449
601 2 13.4546 7.52929 -0.0670283 1.32607
158 1 17.7491 7.4505 1.99637 0.82219
229 1 20.0826 6.4109 1.66245 0.797153
662 2 17.7642 5.85791 0.144797 2.04255
663 2 18.1267 5.19038 2.86651 1.50147
673 2 32.0314 16.3191 22.1495 0.987291
230 1 22.6377 7.49158 2.23361 1.06698
301 1 25.1735 6.44691 1.51908 0.896899
734 2 22.4251 5.05332 1.02691 1.12976
735 2 22.7722 4.89594 4.07369 1.29414
302 1 27.5964 7.73767 2.16032 0.858877
806 2 27.5419 5.21639 0.58397 1.7122
807 2 26.9705 4.97762 3.57997 2.88649
373 1 29.7718 6.626 1.2001 1.22257
374 1 32.1871 7.16396 2.46557 1.28786
458 2 5.88125 9.68094 0.41786 1.95894
25 1 8.68881 9.87615 1.26401 1.03816
26 1 10.8172 11.415 2.83609 1.20617
470 2 8.54367 12.3531 0.637653 1.11511
471 2 8.99037 12.5769 3.9853 2.55323
530 2 11.2969 8.70239 0.59934 1.18178
531 2 11.5765 8.88237 3.54755 0.71665
541 2 10.4726 11.3674 -0.00182043 1.54629
97 1 13.3616 10.48 1.52818 0.700128
98 1 16.0139 11.3845 2.14857 0.871706
542 2 13.5566 12.9116 0.443569 1.40266
543 2 13.2774 12.5725 2.98898 0.917979
602 2 15.8608 9.12593 0.918199 1.63076
603 2 15.3907 8.7411 3.83702 1.47306
613 2 29.853 19.8161 22.4239 0.88741
169 1 18.0539 10.3811 1.40453 0.87256
170 1 20.2584 11.6389 2.25857 0.828503
614 2 17.9425 12.6702 0.668859 0.83082
615 2 17.8746 12.4799 3.44197 0.957418
674 2 19.8455 9.1191 0.485003 1.26736
675 2 20.6713 8.87896 3.34162 1.32802
685 2 34.9874 19.5494 22.2553 0.929082
241 1 22.6132 9.8221 1.33588 1.52569
242 1 25.0005 11.7022 2.50624 0.678197
686 2 22.5832 12.7877 1.00595 0.821329
687 2 22.5746 13.3558 3.7835 0.816502
746 2 25.4762 9.39224 0.0656571 0.579931
747 2 25.5943 8.98241 3.10515 0.818744
313 1 27.643 10.3859 1.78092 0.80181
758 2 26.9033 12.871 1.20195 1.72418
759 2 27.2689 12.7685 3.64334 1.09087
314 1 29.544 11.7944 2.57461 0.756126
385 1 31.9552 10.5749 1.77585 1.34099
818 2 29.8079 8.98085 0.566732 1.06307
819 2 29.707 9.08803 3.13954 0.635064
830 2 32.1847 13.0974 0.830686 1.23649
831 2 31.9031 12.6777 3.10923 1.92151
386 1 34.5448 11.4581 2.29379 1.04616
459 2 33.9956 8.94495 3.43181 0.983134
469 2 20.1999 19.9443 21.8474 2.87673
37 1 10.9319 13.6134 1.36789 0.835944
482 2 10.8998 16.5187 0.908657 0.634962
38 1 13.336 15.3739 2.94916 0.966746
109 1 15.7003 14.2684 1.70866 1.33942
553 2 14.0209 15.2115 0.416699 2.54426
554 2 15.8612 16.7692 0.651995 1.18458
555 2 15.5121 16.8439 3.76368 1.01754
110 1 17.9044 15.2371 2.19914 1.06112
181 1 20.2884 14.3352 1.1107 1.03441
625 2 32.4983 23.4866 21.9856 1.582
626 2 19.9372 16.8977 0.802386 2.44212
627 2 20.3095 17.12 3.31248 0.911218
182 1 22.4602 15.7427 2.2552 1.13397
253 1 24.6082 14.1348 1.36282 1.04022
697 2 36.0339 23.6379 22.0799 1.5401
698 2 24.3928 16.3495 -0.097597 1.30597
699 2 25.033 17.2614 3.77242 1.92682
254 1 27.2245 15.7886 2.57659 2.97041
325 1 29.6644 14.4868 1.70835 1.06891
326 1 32.2469 15.6667 2.6509 0.875405
770 2 30.711 16.6049 0.172441 5.44264
771 2 29.9576 17.0761 3.51786 1.24467
397 1 34.4907 14.2217 1.8283 0.917688
398 1 36.8532 15.6958 2.88125 1.37463
481 2 36.4338 15.6226 -0.000257354 1.0547
842 2 34.217 16.8337 0.431084 1.45227
843 2 34.3175 16.7431 3.1975 1.08397
483 2 11.3447 17.3268 3.29983 0.643523
493 2 52.74 27.5844 22.22 4.11179
49 1 13.4275 18.1357 1.31381 1.27995
50 1 15.8336 19.7454 2.2485 1.29293
61 1 15.8701 22.4105 1.66785 1.20009
494 2 13.6866 21.5596 0.347735 1.78564
495 2 13.68 20.8124 3.89914 1.63142
565 2 29.8829 27.3236 22.004 1.38568
121 1 18.4785 18.3655 1.47857 1.52203
122 1 20.5131 19.8954 2.61049 1.73891
133 1 20.6321 22.3367 1.81188 0.894396
566 2 18.6224 21.3886 0.205718 0.994138
567 2 18.4671 21.1445 3.36876 1.12402
637 2 20.6711 19.8788 -0.429132 0.895776
193 1 22.4125 18.3543 0.834138 1.03434
194 1 24.2879 19.4802 2.12881 1.78809
205 1 25.2771 22.2356 1.77508 0.905515
638 2 22.9914 20.9617 0.21734 1.42445
639 2 22.8797 21.4245 3.04337 1.56191
709 2 38.7206 27.7625 22.1392 0.932439
265 1 26.8403 17.5913 1.23235 3.02905
710 2 27.6596 20.5338 0.305612 0.83633
711 2 26.9173 20.1406 2.80556 1.73468
266 1 29.4517 19.3265 2.33413 2.33614
277 1 29.6686 22.1066 1.63964 0.900357
337 1 32.2335 18.5264 1.35462 1.26422
782 2 32.5544 21.519 0.135338 1.06026
783 2 31.5843 20.7961 2.9043 2.55137
338 1 34.3148 19.8877 2.55965 1.38801
349 1 34.4678 22.7534 1.4863 1.2078
409 1 37.1019 18.7707 1.45129 1.62044
854 2 36.6256 21.8788 0.135636 1.22027
855 2 37.5181 21.628 3.24664 1.22948
410 1 39.5469 20.0431 2.49299 1.92975
421 1 39.116 22.4522 1.22129 1.54344
62 1 18.4543 23.5592 2.24493 1.30458
134 1 22.8417 23.8033 2.36005 1.38319
206 1 27.6386 23.208 3.13402 1.1422
278 1 31.9765 23.4422 2.36427 1.68697
350 1 37.2006 24.1545 2.00685 0.99496
422 1 41.2897 22.9698 2.88985 1.21696
3 1 7.09893 3.98611 5.68859 2.26875
436 2 4.63886 2.60277 4.36392 0.888539
437 2 4.20905 2.27548 7.28862 1.05838
438 2 6.40616 3.63101 7.58923 7.92731
75 1 11.7141 3.54884 5.54416 0.838956
508 2 8.92306 2.18909 4.58753 1.27116
509 2 8.9087 2.16439 7.04041 1.10225
510 2 11.4847 3.52196 8.04201 1.17893
147 1 16.5112 3.69263 5.23413 2.19851
580 2 13.6321 2.14258 4.55814 1.37107
581 2 27.7111 26.5052 7.2899 0.882501
582 2 16.1678 3.44778 8.12035 1.0304
219 1 20.6366 3.46941 5.06972 1.0556
652 2 18.2856 2.01984 3.88795 1.28985
653 2 32.1414 25.8936 7.05476 1.52272
654 2 20.4104 3.28258 7.93963 1.52754
291 1 25.5429 3.67147 5.10393 1.13674
724 2 22.9777 2.30909 3.67463 1.15301
725 2 22.9464 2.54813 7.45134 1.05112
726 2 25.9011 3.77777 7.97479 1.40587
796 2 27.7659 2.0175 4.30283 1.15715
797 2 42.3019 26.097 7.31042 2.74346
363 1 29.9394 3.96098 5.44033 0.780177
798 2 30.0096 3.84139 8.05999 0.659339
448 2 7.1851 6.31226 4.17514 1.11073
449 2 7.03743 6.49884 7.53313 0.956311
4 1 9.50843 4.90683 6.3587 1.27251
15 1 9.32634 7.06965 5.18179 2.28601
450 2 9.54136 7.42252 7.73099 2.01883
520 2 11.4609 5.87077 4.33108 0.931436
521 2 11.9647 6.48875 6.86056 0.827578
76 1 14.1206 4.71152 5.78225 0.936437
87 1 13.3946 7.75021 5.12494 1.52825
522 2 13.4304 8.09762 7.65392 1.48243
592 2 15.2639 6.03202 3.70238 1.71442
593 2 15.8377 6.52316 7.36133 1.22183
148 1 18.0981 5.18789 6.1446 1.96986
159 1 17.8572 7.62523 5.22398 1.57586
594 2 18.2897 7.34761 9.09193 2.74288
664 2 20.3997 6.21522 4.446 0.705354
665 2 20.0955 6.05106 6.91606 1.28007
220 1 22.8229 5.05949 6.57495 1.76675
231 1 22.3645 7.48538 5.04026 1.34951
666 2 23.282 7.04441 8.51788 2.79832
736 2 24.5694 6.24926 4.42674 0.925823
737 2 25.8787 6.21665 7.56209 1.24362
292 1 27.6245 5.04708 6.09931 1.31193
303 1 27.1319 7.75593 5.18491 0.583621
738 2 27.5576 8.0777 7.75946 1.86349
364 1 32.4524 5.08879 6.02326 1.17767
375 1 32.0194 7.68168 5.17302 1.97486
808 2 29.7703 6.1249 4.09199 0.790084
809 2 29.5887 6.25649 7.58574 0.879045
810 2 31.8569 7.22492 8.53241 1.42298
16 1 11.6891 9.202 6.10725 1.02802
27 1 11.0701 11.8014 5.36751 1.27112
460 2 8.99012 9.88403 4.18072 1.02549
462 2 11.7157 12.1051 7.60045 1.50343
28 1 13.4279 13.3903 5.49758 1.5677
88 1 16.1289 9.2087 6.52007 1.77107
99 1 15.6345 12.199 5.26785 1.80387
532 2 13.8434 10.3076 3.94282 1.30294
533 2 13.5858 10.8362 6.63224 0.866949
534 2 15.7874 11.6699 8.49951 1.04396
100 1 18.3114 13.2518 5.92753 1.01458
160 1 19.664 8.99416 6.32209 1.21927
171 1 20.5521 11.487 5.51243 1.13871
604 2 17.7307 10.1256 4.13499 1.36212
605 2 17.9778 10.7883 7.60856 1.48078
606 2 20.2909 11.5125 8.19047 1.03437
172 1 22.6758 12.9166 6.5659 1.42602
232 1 24.6574 8.74697 5.88626 0.97324
243 1 25.0769 11.4041 5.26455 0.88621
676 2 22.7072 9.9844 3.77185 1.15775
677 2 22.7775 9.83889 7.05462 1.38095
678 2 24.9683 11.4816 8.31667 1.11217
244 1 27.5113 12.6562 6.69786 1.28074
748 2 27.499 10.5476 4.61412 0.536398
749 2 26.9953 10.3187 7.38641 1.82895
304 1 29.6363 8.891 5.98584 1.22604
315 1 29.7787 11.5392 5.38393 1.02334
316 1 32.4847 12.7384 6.53723 1.2119
750 2 29.0284 11.0324 8.56174 1.05353
820 2 31.6153 10.0974 4.39098 1.91268
821 2 31.8133 10.3149 7.79855 1.2612
376 1 34.1416 8.76875 6.16765 3.32819
387 1 33.6591 11.5933 4.73576 3.08575
388 1 37.1225 13.267 6.35332 2.053
461 2 9.01174 10.9057 6.85576 2.13921
822 2 34.1469 11.4349 8.20083 1.49315
472 2 11.1378 14.3757 4.38872 1.38278
39 1 13.1799 15.7836 5.29183 2.14303
40 1 15.5157 16.9339 6.61142 0.88428
474 2 12.8464 16.4477 7.91709 2.01924
544 2 15.7013 14.2408 4.14593 1.91425
545 2 16.1545 13.9024 7.01568 0.963138
111 1 17.6592 15.922 5.42989 0.733726
112 1 20.209 17.3424 6.13827 1.44191
546 2 18.1934 15.8328 8.42211 0.83262
616 2 19.8946 14.5611 4.06933 0.823321
617 2 20.0874 15.3279 7.12418 1.77589
183 1 22.8851 15.5341 5.41008 3.90331
184 1 25.4129 16.378 6.44763 1.54266
618 2 22.6781 15.0596 8.12811 7.71779
688 2 24.6986 14.5195 4.40478 2.01662
689 2 25.2545 14.0421 7.15668 0.928362
255 1 27.7108 14.9997 5.83886 1.69166
690 2 27.5613 15.9052 8.51215 2.19044
256 1 30.2683 16.5301 6.54781 0.911804
327 1 32.2565 15.4221 5.27563 0.87996
760 2 30.4989 14.0836 4.25671 1.76591
761 2 29.8622 13.755 7.1428 1.17018
762 2 32.0894 15.8964 8.31221 2.11219
328 1 35.0869 17.1298 5.8381 2.16354
399 1 37.2444 15.9144 5.38331 1.68226
832 2 35.0885 14.6546 4.77503 1.49776
833 2 34.5638 14.6979 7.12299 1.08514
834 2 37.7502 15.337 8.35872 1.94844
400 1 38.9776 17.603 6.52072 1.02807
473 2 11.5116 14.6809 6.74264 1.84028
51 1 16.0969 19.8408 5.46927 0.811853
484 2 13.7515 18.4372 5.28698 1.52796
486 2 15.8011 19.6778 7.8551 1.53051
496 2 16.157 22.4154 4.18711 0.680612
52 1 18.3055 21.1888 6.32842 0.726791
123 1 20.6069 19.8848 5.74597 2.24729
556 2 17.9402 18.23 4.31784 1.00288
557 2 17.8812 18.4167 7.57221 0.766476
558 2 19.5293 19.7457 8.86801 1.96719
568 2 21.0504 22.3863 5.01047 1.70658
569 2 20.2589 21.948 7.55693 1.05396
124 1 22.8131 21.3336 6.50058 1.3766
195 1 24.7505 19.4303 5.41366 2.67566
628 2 23.0191 17.5439 4.81676 3.91689
629 2 22.5322 18.5331 7.06129 1.1913
630 2 25.215 19.3717 8.20298 1.12088
640 2 24.9949 22.3494 4.14612 1.59962
641 2 25.4828 22.3132 7.21985 1.31218
196 1 28.2377 20.6682 6.00338 2.73823
700 2 28.0804 18.2834 4.41897 3.06638
701 2 28.1377 17.7843 7.66486 3.3083
267 1 30.5408 19.6716 4.8528 2.87632
268 1 32.6215 20.8408 6.11952 1.63968
702 2 30.6577 19.3294 7.98911 1.92229
712 2 30.0462 22.8811 4.95494 1.01387
713 2 28.8453 23.0041 7.48783 3.35262
772 2 32.3241 18.0099 3.98646 1.03161
773 2 33.026 17.7173 6.92416 2.47878
339 1 34.9771 19.8942 5.31871 1.34436
340 1 36.9674 21.4733 6.35691 0.765234
774 2 34.3763 20.4025 8.00235 1.41235
784 2 34.8955 22.5577 4.0078 0.594991
785 2 34.3648 22.4949 6.88866 0.893149
844 2 37.1453 18.1795 4.67743 2.21972
845 2 36.3149 18.4586 7.32483 1.75972
411 1 39.3708 20.0646 5.32636 1.04955
412 1 41.3082 20.9188 6.68391 1.31214
485 2 41.3482 18.931 8.01935 2.65941
846 2 39.3541 19.5242 8.09004 2.44015
856 2 39.8077 22.7011 5.13632 1.48313
857 2 38.7528 23.5646 7.43064 4.01541
497 2 43.2914 22.143 7.35627 1.34333
63 1 18.3826 23.7803 5.16387 1.04235
64 1 20.1299 24.959 6.27524 1.16607
498 2 18.2145 23.8104 8.02815 0.917439
135 1 22.9875 24.212 5.54214 1.13103
136 1 25.3766 25.1588 6.74487 0.769176
570 2 22.9938 23.6775 8.60649 0.967917
207 1 27.6578 24.2384 5.51045 2.06945
642 2 27.3467 24.1467 8.74255 1.5034
208 1 29.8086 25.6803 6.01387 1.09638
279 1 32.5612 24.1575 5.09951 1.75785
714 2 31.9957 23.6939 8.21802 1.66279
280 1 35.0046 25.1265 5.49086 1.02722
351 1 37.5111 24.2979 4.71312 1.49992
786 2 36.5809 24.2212 7.46417 0.963338
352 1 39.3399 25.4899 6.28671 0.960957
423 1 41.9089 24.0334 5.54323 0.834547
858 2 41.3098 23.3451 8.25229 0.814308
424 1 44.2863 25.3031 6.47513 1.86806
439 2 48.3 27.1464 11.0719 0.853803
511 2 11.0464 3.85183 11.3012 0.863434
583 2 30.1412 27.6648 11.7105 1.82551
655 2 20.5202 3.64075 10.7263 1.23191
727 2 24.9325 3.67945 10.544 1.00524
799 2 43.9445 27.483 10.77 0.961997
5 1 8.87518 4.67699 8.94976 1.20571
6 1 11.2482 6.59894 9.87182 1.17079
7 1 10.7467 6.08564 12.2266 1.17782
440 2 8.48483 4.89813 11.5747 1.58797
451 2 36.276 7.67401 10.9729 0.895882
77 1 14.0583 5.30326 8.5192 0.787868
78 1 15.6263 6.66182 10.465 1.46403
79 1 16.0708 6.57101 13.0025 0.997266
512 2 13.2934 5.63283 12.0368 1.53787
523 2 13.5134 8.09294 10.2651 1.46633
149 1 18.0795 4.83529 8.96608 0.997553
150 1 20.4186 6.09854 9.7281 0.80863
151 1 20.6818 5.89947 12.4883 1.06784
584 2 17.9494 5.20586 11.2081 1.76905
595 2 17.9598 7.76266 11.4161 4.94454
221 1 22.6475 4.44607 8.90369 1.02023
222 1 25.6968 6.53351 10.242 1.56426
223 1 25.3465 6.22534 12.9262 1.24372
656 2 22.8941 5.27557 12.1343 6.18413
667 2 22.3832 7.17146 10.7407 1.70428
293 1 27.7251 4.83297 8.97734 1.07359
728 2 27.3083 4.6308 11.9026 1.2865
739 2 27.9459 8.2824 11.9188 2.62832
294 1 30.2063 5.96059 10.0772 1.40478
295 1 29.2518 6.18004 12.8042 1.33334
365 1 32.7118 4.404 9.17343 1.33557
800 2 31.9056 4.41887 11.8534 1.83681
811 2 31.7507 8.26264 11.1372 1.79735
366 1 33.8279 6.11956 10.3996 1.12247
367 1 34.6153 5.89204 12.7781 1.67644
17 1 11.0308 9.18243 8.72032 1.17114
452 2 10.8824 8.84062 11.3049 0.971266
463 2 38.5456 10.9831 10.951 2.23277
18 1 13.3468 10.8053 9.74141 1.49908
19 1 13.1842 10.4744 12.1637 1.31126
29 1 13.7835 14.014 8.71368 1.93015
89 1 15.6041 8.96429 9.24869 0.947568
464 2 13.8458 13.0433 12.2004 1.31551
524 2 15.6679 8.8595 12.0269 1.47299
535 2 16.2432 11.445 10.8624 1.51893
90 1 17.9397 9.8368 9.86623 1.65973
91 1 17.7938 10.1463 12.3718 1.79663
101 1 18.2488 12.9444 8.90006 1.15358
161 1 20.9171 8.26133 8.47919 1.49515
536 2 18.638 13.6648 11.7669 2.14494
596 2 20.3884 8.27606 11.5863 1.30664
607 2 20.5356 10.8719 11.2833 1.36698
162 1 22.6719 10.2529 9.43979 0.706373
163 1 22.682 10.196 12.4639 1.5675
173 1 22.5714 13.0204 9.07618 2.29142
233 1 24.9926 8.8841 8.44914 1.41716
608 2 22.0366 13.2782 11.797 1.31998
668 2 25.0376 8.74317 11.4141 1.83919
679 2 24.3847 12.2329 11.195 1.59202
234 1 26.8253 9.84245 10.0331 2.11139
235 1 27.3734 10.5043 13.2421 1.37631
245 1 27.1027 12.8015 9.42173 0.94069
680 2 27.2345 13.0702 12.1576 0.820325
305 1 30.0549 8.76947 9.30033 1.38624
306 1 31.8445 10.3795 10.2998 1.26066
307 1 32.2901 10.5036 13.1488 1.19057
317 1 31.687 12.755 9.13841 1.23766
740 2 29.514 9.5052 12.5354 2.65
751 2 29.4898 12.185 11.6043 0.813046
752 2 32.1102 13.169 12.4971 1.79823
377 1 34.213 8.65619 9.15406 0.985094
378 1 36.4124 10.1348 9.54663 0.910319
379 1 37.114 10.4511 12.8316 0.991706
389 1 36.6538 13.106 9.14773 0.915225
812 2 34.36 9.11817 11.6617 1.23039
823 2 34.2439 12.0614 10.4865 1.42967
824 2 36.3113 13.1512 11.5966 0.91596
30 1 16.0013 14.415 9.87537 1.56636
31 1 15.5039 14.564 13.212 1.50032
41 1 15.3714 16.9024 9.13537 1.20909
476 2 15.5404 17.0258 12.1777 1.16891
102 1 20.2815 14.4757 10.0292 2.05915
103 1 20.5855 14.9806 14.0211 1.26523
113 1 19.9607 17.0372 9.66732 1.36546
547 2 18.9487 16.3745 11.8317 4.03028
548 2 20.4237 16.9416 13.077 6.33242
174 1 25.0097 14.4282 10.1155 1.45442
175 1 24.8382 14.4935 13.3561 1.2843
185 1 23.919 16.6256 8.89204 2.89575
619 2 22.5532 16.4181 12.0933 1.96164
620 2 24.7509 17.6446 11.3046 2.67683
691 2 26.445 16.1225 11.2659 1.85219
246 1 29.2199 14.3812 10.0845 1.10244
247 1 30.1007 14.7343 12.6959 1.15746
257 1 29.8178 17.6125 9.37803 2.18832
692 2 29.524 17.0285 11.9802 0.940789
763 2 32.0606 14.9474 10.6813 1.17127
318 1 34.681 14.8377 9.79341 1.08813
319 1 34.6171 14.7494 13.1071 0.783593
329 1 34.3008 17.565 8.96073 1.47586
764 2 34.8126 17.261 11.9434 1.81494
835 2 37.4005 15.5639 10.9588 1.24313
390 1 39.3584 13.9917 10.125 1.10215
391 1 38.9529 14.1774 12.8234 0.936053
401 1 38.9364 17.4207 9.38459 1.04747
475 2 13.6266 15.5979 11.0803 0.950066
836 2 39.1261 17.1016 12.1582 1.163
42 1 17.6107 18.2783 10.2595 0.832238
43 1 17.49 18.5055 12.9736 0.932432
53 1 17.7536 21.1286 8.96663 1.52475
54 1 20.5099 22.4457 10.3366 0.91657
55 1 20.3266 21.8045 13.2103 1.53593
488 2 17.8076 20.9877 11.2901 1.38064
559 2 19.4325 19.5158 12.2507 3.71423
114 1 21.8489 18.6851 10.633 1.72573
115 1 22.5204 18.8019 13.0926 1.8781
125 1 22.9782 20.6213 9.06396 1.19844
126 1 25.2903 22.3272 10.038 0.86052
127 1 25.9799 21.8876 13.3262 1.89979
560 2 22.8547 21.0216 11.9469 1.21308
631 2 25.7188 20.3253 11.4138 2.02144
186 1 27.2901 18.6635 9.83736 1.29793
187 1 27.2538 18.4029 12.9406 0.960336
197 1 27.8562 20.8062 8.52172 1.32118
632 2 27.7759 21.0255 11.2299 1.72732
198 1 30.0078 22.3323 9.7344 1.77668
199 1 29.8159 22.3664 12.6551 0.769917
258 1 31.9308 18.1532 10.2414 1.51666
259 1 31.6507 18.6994 12.8733 1.56548
269 1 32.4698 21.382 9.26176 1.57432
703 2 29.8377 19.8838 10.6805 1.84673
704 2 32.476 21.353 11.5096 1.99582
270 1 34.3004 23.0716 9.67688 1.29226
271 1 34.3216 23.0164 12.5075 1.34974
330 1 36.4295 18.4586 9.85723 1.5796
331 1 36.6355 18.8573 13.5076 1.436
341 1 36.9691 21.6812 8.97553 1.27223
775 2 34.2235 19.1336 10.9689 2.90445
776 2 35.7314 21.0646 11.284 2.1747
342 1 39.3518 22.6088 9.75453 1.40707
343 1 38.7991 22.3293 12.3965 0.72858
402 1 41.0877 18.3364 10.4452 1.31176
403 1 41.1417 18.4804 13.3745 1.27026
413 1 41.3085 21.0738 9.71484 1.02663
847 2 39.0897 20.0318 10.9944 1.051
848 2 41.3109 20.6913 12.7119 1.60801
414 1 43.5229 22.6788 10.2226 1.01867
415 1 43.437 22.6095 12.6128 0.955675
487 2 43.4402 19.5238 11.0536 0.74721
65 1 20.6644 25.028 9.26019 0.989737
500 2 20.7326 24.7578 11.6845 0.880347
66 1 22.6725 26.4457 10.2711 1.31435
67 1 22.687 26.597 13.3425 1.02043
137 1 24.9575 25.0661 9.65978 1.30523
571 2 23.3201 23.5276 11.1392 1.45627
572 2 25.4637 25.1528 12.9703 1.30023
138 1 27.1928 27.1736 9.86472 1.3829
139 1 27.7697 27.1569 12.5926 2.55246
643 2 27.5528 23.7532 11.5322 1.89137
209 1 29.8492 25.3965 9.32789 1.81831
210 1 32.1536 26.4952 9.87381 0.635719
211 1 32.0303 26.6947 12.7904 1.01561
644 2 29.3055 25.2901 13.3183 2.20095
715 2 31.4738 24.0681 10.8172 1.92723
281 1 34.2757 25.3628 8.55244 0.921336
282 1 36.4331 26.2315 10.0946 1.13409
283 1 36.3822 26.8661 12.6535 1.70517
716 2 33.6725 24.7822 11.1368 4.50606
787 2 36.4128 23.8682 10.8794 1.36088
353 1 38.886 25.3719 9.0198 0.823851
354 1 41.5145 26.4404 9.9668 0.842395
355 1 40.7486 26.4608 12.6354 1.76251
788 2 39.4193 25.3093 11.2421 6.14681
859 2 41.2408 23.7248 11.1233 0.862312
425 1 43.6062 25.2241 9.19797 1.13655
426 1 45.9334 26.2087 9.94331 1.12769
427 1 46.2106 26.2726 12.6003 0.943018
499 2 46.004 23.838 11.2354 0.80223
860 2 43.6261 25.6179 12.1617 0.996916
441 2 37.007 5.34481 14.8566 4.29063
442 2 11.4383 5.73559 15.9652 1.48064
8 1 13.3945 7.55947 13.6245 1.78152
9 1 13.5164 7.38136 16.7277 0.928086
513 2 13.7874 5.28271 14.7505 1.31906
514 2 16.1141 6.21282 16.4999 1.83485
80 1 18.4905 7.47044 13.4123 1.41387
81 1 18.205 7.3764 16.3192 1.50489
585 2 17.9565 5.04009 14.1805 2.92515
586 2 20.5329 6.33424 15.6151 0.888743
152 1 22.9037 7.06905 13.4216 2.75854
153 1 22.8098 7.61199 16.5682 1.00574
657 2 23.1782 4.89446 14.8169 1.65623
658 2 25.1178 6.11566 16.5536 3.32033
224 1 27.533 7.78639 14.5232 1.90265
225 1 27.4186 7.97259 17.1583 1.22782
729 2 26.822 5.45542 15.217 2.5914
296 1 31.2469 7.85633 14.0635 2.12511
297 1 32.0426 7.1375 16.6759 1.56378
730 2 29.1149 6.33197 15.6559 1.78644
801 2 31.6402 4.86158 14.3155 0.723632
368 1 36.7352 7.32684 13.9426 1.63116
369 1 36.8752 7.4307 16.3619 1.13287
802 2 34.393 6.58354 15.4427 1.27538
453 2 11.0138 8.25057 14.1514 1.44717
10 1 15.9915 8.94984 17.5427 0.91996
20 1 15.9159 11.7255 13.9098 1.11526
21 1 15.6278 11.5341 16.7304 0.953692
454 2 13.7018 10.2929 14.4796 2.69728
525 2 15.2704 8.85053 14.9258 2.25974
22 1 17.9399 12.8344 17.9461 1.18639
82 1 19.8595 8.86489 17.7049 1.5234
92 1 20.2026 12.2148 13.8419 1.98418
93 1 20.3653 11.2075 16.3573 3.51552
526 2 17.5782 9.63884 15.2181 2.05406
537 2 18.0576 12.9326 14.5969 2.05031
597 2 20.7973 8.82106 13.7637 1.79257
94 1 22.776 13.0393 18.0002 1.09907
154 1 24.9492 9.52138 17.4176 1.3508
164 1 25.0114 11.7574 14.0473 2.33131
165 1 24.8561 12.1359 16.8675 1.28601
598 2 22.912 10.4803 15.6169 2.76403
609 2 22.8459 13.211 15.0492 1.12465
669 2 24.3373 9.30946 14.6952 2.67704
166 1 27.2564 12.9895 17.8526 1.45396
670 2 27.5525 10.6255 16.7004 1.86212
681 2 27.1104 12.5772 15.1747 0.851009
226 1 29.7596 9.73792 18.3917 2.80103
236 1 29.674 11.9566 14.2664 0.938622
237 1 29.7425 12.1157 17.0774 1.90907
238 1 32.0143 12.3444 17.4915 1.89911
741 2 29.2113 9.60428 15.5234 1.46293
742 2 32.7737 9.25076 15.9641 3.05186
753 2 32.2334 13.3485 15.1997 0.961495
298 1 34.8087 9.02817 17.6364 1.48899
308 1 34.6216 11.5952 13.3164 0.983005
309 1 34.3341 11.5061 16.1368 0.863457
310 1 37.2152 13.308 17.5228 2.05488
813 2 34.7537 9.24808 14.2441 1.42873
814 2 37.3141 10.2079 15.3887 0.959706
825 2 36.4515 13.0073 14.7224 2.60393
370 1 39.2959 8.94088 16.998 1.06414
380 1 39.2462 11.763 13.4686 1.72284
381 1 39.0917 12.0669 16.5817 2.16059
382 1 41.0385 13.2336 18.1084 1.63064
465 2 40.7441 13.283 15.0221 1.68908
466 2 15.8975 13.9754 15.7482 1.79774
32 1 18.0733 15.8276 14.5347 1.17796
33 1 18.5791 15.1708 17.1093 1.29487
34 1 20.2751 16.7729 18.338 1.2029
538 2 20.6858 14.0693 16.474 0.99177
549 2 20.2778 16.7151 16.0092 1.66244
104 1 22.8522 15.7399 15.2204 1.71525
105 1 22.7345 15.6057 17.7028 1.33865
106 1 25.2268 16.4322 17.8745 2.01681
610 2 25.5475 14.4486 16.4371 2.92727
621 2 25.1766 17.1235 13.5807 3.6722
176 1 27.7863 15.6309 13.7233 0.832787
177 1 27.7032 15.233 16.435 1.86168
178 1 29.6834 17.5287 17.9505 3.22337
248 1 32.3932 15.98 13.6781 1.08392
249 1 32.5189 15.2979 16.6886 1.18591
682 2 29.9618 14.5803 15.4897 1.18929
693 2 29.5189 17.5663 14.6157 1.44273
250 1 34.3433 17.1133 17.3739 0.698441
320 1 37.2068 16.0378 13.6492 1.17737
321 1 36.9843 16.354 17.0684 1.39425
754 2 34.729 13.9422 15.6022 1.45709
765 2 34.5184 16.9419 14.6938 1.00274
322 1 39.2798 17.2062 17.6518 1.55446
392 1 41.2619 15.8031 13.913 0.637227
393 1 40.9298 15.7812 16.9942 1.69274
826 2 38.8173 15.0649 15.5967 1.07279
837 2 39.1413 17.5941 14.6603 1.05396
394 1 43.6279 17.2375 17.9016 1.98148
477 2 43.6453 17.1238 14.6216 1.23556
44 1 20.4708 19.7703 14.4188 1.7113
45 1 20.5065 19.4403 17.1053 1.12991
478 2 18.4208 18.2691 16.232 1.598
490 2 20.4214 22.6828 15.8495 1.19939
46 1 22.8896 20.5433 17.7394 1.286
116 1 25.2093 19.5267 14.0213 1.33367
117 1 25.4451 19.4158 17.2849 1.59427
550 2 22.6152 18.3383 16.2784 1.71227
561 2 22.8313 21.4106 14.4391 1.32964
562 2 24.9877 21.9758 15.6236 2.19712
118 1 27.9186 20.9433 17.7839 2.31201
622 2 27.2749 17.7864 15.8175 0.895179
633 2 27.3975 20.9434 14.9168 2.20944
188 1 29.5669 19.6942 13.1641 1.35231
189 1 29.8873 19.8939 16.2858 1.1328
190 1 31.926 21.2475 17.5581 0.946116
634 2 29.8889 22.8566 15.3158 0.962805
694 2 32.3043 18.8094 15.9274 1.08415
705 2 32.0279 20.984 15.0094 1.04574
260 1 34.2333 20.159 13.8153 0.851025
261 1 34.3759 20.1302 16.3639 3.02006
262 1 36.2731 21.1123 16.9706 3.48631
706 2 34.1288 22.7189 15.3704 1.4169
766 2 36.4347 18.5205 15.7143 1.72249
777 2 36.6821 21.225 14.6124 1.54163
332 1 38.9449 20.0665 13.8637 1.22905
333 1 38.8167 20.033 16.6554 1.06682
334 1 41.244 21.3455 17.5851 1.28918
778 2 39.2364 22.0998 15.079 2.8135
838 2 41.6237 18.4636 16.1854 1.94481
849 2 41.27 20.448 15.0727 1.69605
404 1 43.7592 20.1115 14.0998 1.19659
405 1 44.5941 20.1144 16.5919 1.55707
406 1 46.1922 21.5688 17.9345 1.11292
489 2 45.6757 21.2418 14.4896 3.56103
850 2 43.3783 22.2216 15.913 0.857013
56 1 22.7338 23.8976 13.7545 1.70119
57 1 22.9911 23.0672 17.0861 1.32925
58 1 25.3379 24.626 18.3071 1.05368
502 2 23.0675 26.6249 16.015 1.17992
573 2 25.1977 24.199 15.34 2.09529
128 1 27.491 23.6642 14.4161 1.37987
129 1 27.7721 23.8271 17.2127 0.872438
574 2 27.4529 26.5368 15.9435 1.27884
130 1 30.109 24.761 17.753 1.30775
200 1 31.8504 23.808 13.2945 1.09113
201 1 32.2089 23.5633 16.6327 1.04785
645 2 30.7489 25.1349 15.118 2.60299
646 2 32.492 26.7777 15.5748 1.17532
202 1 34.3847 24.7531 17.9133 0.9098
272 1 36.341 23.8178 13.666 1.48609
273 1 36.5178 23.7781 16.4215 1.27113
717 2 33.9323 24.7704 14.8678 2.29457
718 2 35.9968 26.0008 14.8037 3.19467
274 1 38.7816 25.5113 17.0583 2.30489
344 1 41.3203 23.426 13.8065 1.10549
345 1 41.0863 23.588 16.2342 1.58185
789 2 38.3549 25.4418 13.3202 4.36857
790 2 41.6567 26.5405 14.7712 4.44834
346 1 43.5054 25.0803 17.499 1.541
416 1 46.3001 23.9588 14.1262 1.06191
417 1 45.7003 23.6753 16.7343 0.966488
861 2 43.8381 24.6108 14.7882 0.852247
862 2 45.7863 26.3324 15.4345 0.741412
418 1 48.792 24.5537 17.631 1.09021
501 2 20.6846 25.3931 14.6978 1.55765
68 1 24.808 27.8172 14.3724 1.92559
69 1 25.2949 27.4077 17.1134 1.40606
70 1 27.508 28.6876 17.575 0.743835
140 1 29.8589 28.3875 14.2423 1.68133
141 1 30.1121 27.6572 16.8788 0.836767
142 1 32.4612 28.8262 17.8107 1.44992
212 1 34.0549 27.8403 13.9327 1.42459
213 1 34.5796 28.1596 16.7529 1.35277
214 1 37.0161 29.3337 17.5885 1.25676
284 1 38.8369 27.9278 13.4179 1.12993
285 1 39.1123 27.9712 16.2318 1.9652
286 1 40.9671 29.1107 17.6795 1.21399
356 1 43.2856 27.7188 13.6357 1.50884
357 1 43.5611 28.2831 16.022 1.44558
358 1 45.7275 28.8233 17.0549 1.56573
428 1 48.1137 27.5698 13.8442 1.91627
429 1 48.2926 27.3766 16.6276 2.974
430 1 51.147 29.139 17.7424 2.00715
443 2 25.5719 30.5088 18.2074 0.810424
444 2 13.5499 7.68498 19.174 1.68546
515 2 15.6987 7.01008 19.4724 3.37736
516 2 17.9961 7.73598 20.0404 1.15961
587 2 34.3418 30.4871 18.5225 0.790662
588 2 22.5017 7.1832 19.7103 1.1331
659 2 25.2834 6.71228 18.8581 1.30311
660 2 28.0303 7.88571 20.1731 1.16128
721 2 18.38 0.38245 -0.122532 1.76574
731 2 43.6959 30.4572 18.5231 1.17348
732 2 32.0032 7.56876 19.2613 1.24436
793 2 36.5763 7.96485 21.7466 0.796207
803 2 34.7875 6.43575 18.2032 1.56402
804 2 36.5693 7.96787 19.0618 0.791477
11 1 15.658 9.21573 20.6529 1.51354
455 2 13.5686 10.3818 18.1349 1.21273
456 2 15.8842 12.3695 19.5276 1.12422
12 1 17.7468 10.4389 21.2868 1.21216
23 1 18.3129 13.1658 20.546 1.0885
83 1 20.1675 9.11231 20.3626 0.898492
527 2 17.7202 10.487 18.4102 1.35696
528 2 19.9159 11.7348 19.6557 1.27648
84 1 23.1245 10.0435 21.1413 1.80269
95 1 22.5314 12.3992 20.5624 1.2234
155 1 25.1397 8.97357 19.7264 1.87031
599 2 22.7156 10.45 18.4846 1.21338
600 2 25.0912 11.6264 20.2921 2.34352
156 1 27.6998 9.68477 21.9197 1.2731
167 1 27.3602 12.8561 20.8908 2.37276
671 2 27.4274 10.5381 19.1973 0.851191
227 1 30.477 8.91971 21.0796 1.15856
228 1 32.2586 10.6892 21.5661 0.934023
239 1 32.6498 13.1794 20.3731 1.07068
672 2 30.0224 12.1873 20.0217 0.946002
743 2 32.784 9.83869 18.4986 2.01493
299 1 34.5152 9.37021 20.3559 1.38508
300 1 36.7493 10.6916 20.8 1.13874
311 1 36.7712 13.3215 20.555 0.763149
733 2 34.3344 11.9167 21.8438 1.16436
744 2 34.7266 12.0226 19.6292 1.58275
815 2 36.8313 10.4468 18.3386 1.21916
371 1 38.8545 8.86072 20.2022 2.81955
372 1 41.6155 10.7769 21.7609 2.13806
383 1 41.4661 13.168 21.1414 1.37444
805 2 38.7395 11.9624 22.4028 0.940936
816 2 39.275 12.4338 19.813 1.51656
24 1 20.5923 13.8264 21.6637 1.49433
35 1 20.3266 16.9077 20.7679 1.54778
468 2 18.3056 16.3671 19.7793 2.78736
539 2 20.9271 14.5355 19.2225 1.91216
96 1 24.7266 14.6442 21.8429 1.25112
107 1 24.754 16.7935 20.5231 1.93862
540 2 23.0522 14.9395 20.2515 3.84927
611 2 25.4222 13.4443 19.1874 2.15551
612 2 27.2076 15.6714 19.9232 1.89209
168 1 30.129 14.4216 21.1297 1.68493
179 1 29.2771 17.0957 20.5729 1.41045
683 2 30.1645 14.52 18.7617 1.23574
684 2 32.2038 16.0287 19.4914 0.878584
240 1 34.6069 14.8984 21.7741 0.883643
251 1 33.886 17.4958 20.4552 1.4567
745 2 23.2215 7.70884 -0.283705 1.31409
755 2 34.1033 13.9027 18.3612 1.71059
756 2 36.1925 15.7716 19.7579 1.12847
312 1 39.6092 14.8054 21.7557 0.984527
323 1 39.3043 17.0878 20.3144 1.00599
817 2 42.4248 15.5786 21.9739 2.48223
827 2 39.1826 14.8095 19.412 2.06562
828 2 41.7558 15.7872 19.4039 0.976945
384 1 44.4668 14.5194 21.7688 1.64969
395 1 43.7973 17.5134 20.2807 0.894177
467 2 16.2819 14.9124 18.3026 1.99483
480 2 21.1293 19.0011 19.6059 2.42869
36 1 22.7486 18.1125 21.2439 1.64258
47 1 22.8109 21.1053 20.6576 1.39506
48 1 25.4621 21.5482 21.5785 2.20326
551 2 23.3417 17.9457 18.8561 1.84122
552 2 25.1501 19.7662 19.7596 1.23526
563 2 26.0829 21.8733 18.0926 3.93808
108 1 27.3474 18.7294 21.5749 0.961976
119 1 27.9284 21.2254 20.7799 0.77878
623 2 27.0933 18.2476 18.8898 1.10965
120 1 30.2474 22.3949 21.7184 0.986572
180 1 31.2827 18.5415 20.9621 1.47556
191 1 32.0678 20.8139 20.7919 1.36337
624 2 30.023 19.6944 18.9509 1.56227
635 2 29.6014 22.6616 18.7998 1.54811
695 2 32.2181 18.337 18.6747 1.0282
192 1 34.6578 21.7391 21.1934 0.974752
252 1 36.9416 18.1881 21.4961 1.07194
263 1 37.0302 20.8527 20.8774 1.3371
696 2 33.9706 19.9906 19.3367 1.3489
707 2 34.5558 22.0791 17.8788 3.02708
767 2 35.9886 18.9261 18.6893 1.60676
264 1 39.3168 22.5814 21.1098 1.60434
324 1 41.7606 18.6933 21.3362 0.836959
335 1 41.4574 21.4856 20.5663 1.22622
757 2 39.3493 20.0574 22.1707 1.00463
768 2 39.2242 19.8705 19.6231 0.96647
779 2 38.5716 22.6849 18.5446 1.09099
839 2 41.5463 18.4929 18.6008 1.03646
336 1 43.6306 22.928 21.4038 1.65751
396 1 46.0319 18.662 21.5701 0.707021
407 1 46.0976 21.1497 20.7372 0.641171
479 2 18.5736 18.7107 19.064 1.20229
829 2 29.9084 12.4598 -0.596245 1.21091
840 2 43.968 20.5464 19.6276 6.07847
851 2 43.8608 22.2098 18.6674 7.0617
408 1 48.3639 22.2356 22.1256 1.32101
491 2 20.8734 21.9722 18.834 0.929421
59 1 24.885 23.9006 20.8937 1.97926
492 2 22.5189 23.7596 19.6792 1.50942
503 2 23.3367 26.3692 18.5534 0.944464
60 1 27.1857 26.1369 21.4446 1.44322
564 2 27.3654 23.6482 19.6112 0.986081
575 2 27.9932 26.2136 18.6272 0.694537
131 1 30.1573 25.2988 20.4028 0.81505
132 1 32.3619 26.4426 21.6908 0.909489
636 2 32.4015 22.7396 19.0969 3.03425
647 2 32.1779 26.334 18.7352 0.963335
203 1 34.3822 24.9116 20.6738 1.09713
204 1 36.7072 26.1973 20.9409 1.46198
708 2 36.4367 23.9069 19.5506 1.96714
719 2 36.8788 26.8835 18.6836 2.62629
275 1 38.5383 25.1541 19.7164 1.13391
276 1 41.2181 26.5621 21.116 1.08262
769 2 41.1019 23.8439 21.9711 3.03632
780 2 41.0796 23.9339 19.4176 0.757112
791 2 41.1031 26.7297 17.9959 1.18838
347 1 43.5482 25.3502 20.4561 1.53308
348 1 46.3101 26.5666 21.4648 0.769929
841 2 32.2341 15.5579 -0.384721 4.79409
852 2 46.4753 23.8657 19.5223 0.595134
863 2 46.5751 26.0022 18.118 1.27915
419 1 48.658 25.3528 20.6429 1.21979
420 1 51.2052 26.3532 21.5401 2.50661
504 2 25.7837 27.5469 19.5488 1.42441
71 1 27.7824 28.9616 20.4295 0.748631
72 1 29.9183 30.4974 21.6893 0.751523
143 1 32.3662 29.2423 20.2783 0.965176
576 2 30.4586 28.2708 19.2033 2.6222
144 1 34.4949 30.54 21.4354 1.07754
215 1 37.3697 28.8425 20.1283 2.39853
648 2 34.5464 27.6179 19.6894 0.906311
216 1 39.9064 30.4309 21.8191 1.78587
287 1 42.107 29.3544 20.5801 1.37108
720 2 39.478 28.1334 19.8431 2.03546
288 1 44.62 30.7869 21.6986 1.22341
359 1 45.282 28.9535 20.1428 2.24731
781 2 43.7771 27.615 21.8363 1.55884
792 2 43.4826 27.6631 19.0983 1.03725
360 1 48.3698 31.1444 21.2359 1.1746
431 1 50.6258 29.2458 20.2004 1.37233
853 2 48.6388 28.09 22.4045 1.49017
864 2 47.5152 28.3329 19.8346 1.99523
432 1 53.0909 30.5339 21.1424 1.048
ITEM: TIMESTEP
275
ITEM: NUMBER OF ATOMS
864
ITEM: BOX BOUNDS xy xz yz pp pp pp
-5.7967234631858500e-01 5.5717105342071235e+01 1.4097160965808188e+01
-5.3667575737772910e-01 3.2012503701648669e+01 1.4085349670286478e+01
-4.9633887404381960e-01 2.2504940819876907e+01 8.1321804237699222e+00
ITEM: ATOMS id type x y z f_grace_gamma
433 2 55.2126 31.9067 22.3628 1.53542
434 2 1.39929 0.622057 0.208104 1.70936
435 2 15.9913 25.0854 3.2391 0.903108
445 2 30.103 3.7888 0.0183365 0.989738
1 1 4.28185 1.92299 1.26836 0.949455
2 1 6.88663 3.95422 2.71517 0.747227
505 2 18.4761 7.91939 22.2798 1.46271
506 2 7.18957 0.290821 -0.0563716 1.63881
507 2 6.70659 1.37419 3.00751 1.45525
517 2 6.79634 3.0582 -0.434234 1.03095
73 1 8.87691 2.28813 1.87018 1.61129
74 1 11.423 2.85109 2.82038 1.56306
577 2 23.4545 23.9433 -0.0921557 2.06739
578 2 11.7184 1.02348 -0.0664835 1.76957
579 2 24.9036 24.9476 3.90938 2.02017
589 2 10.4607 3.9855 0.28008 2.52403
145 1 13.5874 1.55104 1.57025 1.17254
146 1 16.0151 3.24579 2.54992 1.89019
649 2 27.9999 23.7644 0.158371 1.40332
650 2 16.7 1.13472 0.730901 1.84459
651 2 15.5209 1.10078 3.55392 2.07217
661 2 15.7585 3.64267 -0.252104 0.572384
217 1 18.5867 2.384 1.36617 1.33442
218 1 20.6314 3.81947 2.19124 0.698818
722 2 20.9256 1.50317 -0.148747 1.27202
723 2 20.5562 0.81807 2.45823 0.99043
289 1 22.7676 2.54862 1.05607 1.30337
290 1 25.0844 3.62881 2.2509 1.66434
794 2 25.2083 0.933779 -0.293436 1.44245
795 2 40.2608 25.1101 3.20829 2.26014
361 1 27.5602 2.56065 1.62224 3.5613
362 1 30.9044 3.32502 3.02176 4.58289
13 1 6.49698 6.6793 1.71598 1.46438
446 2 4.73494 4.14352 0.54887 1.35433
447 2 4.52777 5.08349 3.52137 1.12129
457 2 4.61104 7.43199 0.0402934 7.32208
14 1 9.11745 7.69852 2.20372 0.965127
85 1 11.4022 6.34266 1.76348 1.61822
518 2 8.21643 5.30584 0.419091 2.38536
519 2 9.58493 4.66388 2.71623 1.7946
529 2 7.87587 7.54519 -0.37419 3.01015
86 1 13.5301 7.75477 2.15422 1.2055
157 1 15.1723 6.36964 1.06329 1.81512
590 2 12.6464 4.16071 1.06176 1.93044
591 2 13.6512 3.87277 3.29434 2.47245
601 2 13.1922 7.12866 -0.468306 5.61447
158 1 17.9978 7.31446 2.15211 1.44575
229 1 20.5463 6.23074 1.86153 1.45327
662 2 17.8114 5.62828 -0.0673184 1.03804
663 2 17.9222 4.90783 3.25291 1.45411
673 2 31.9671 16.5543 22.3453 0.89398
230 1 22.7496 7.45885 1.97261 1.68982
301 1 25.0686 6.53646 1.62393 0.930187
734 2 22.9036 5.21647 0.689835 1.10027
735 2 22.8797 5.22167 3.5519 0.67955
302 1 27.7856 7.56353 1.70568 2.40507
806 2 27.5112 5.31447 0.94183 2.31067
807 2 27.1534 5.17232 3.25284 2.39606
373 1 29.74 6.70947 1.15267 2.22793
374 1 32.1414 7.33185 2.08744 1.78001
458 2 5.70963 9.33049 0.249245 5.11997
25 1 8.46239 9.94938 1.27529 1.14678
26 1 10.7007 10.9069 2.62738 0.966015
470 2 8.39083 12.585 0.74174 0.769684
471 2 36.5307 12.2249 4.24995 1.56425
530 2 11.261 9.16269 0.84203 0.923004
531 2 11.5485 8.82028 3.82888 1.16763
541 2 10.6808 11.415 -0.00811556 2.2573
97 1 13.3963 10.3834 1.37665 1.13412
98 1 15.7501 11.5542 2.28112 0.959548
542 2 13.6611 13.0875 -0.0346989 2.60838
543 2 13.1774 12.9141 3.19833 1.99795
602 2 15.9892 9.08932 1.07897 1.55934
603 2 15.6687 8.79313 3.58265 0.991799
613 2 15.952 12.2704 -0.395459 2.03888
169 1 17.9036 10.4541 1.38899 1.14497
170 1 20.4126 11.5426 2.27967 0.966365
614 2 18.1463 13.142 0.869449 2.71728
615 2 18.4044 12.9177 3.15552 1.81835
674 2 20.3364 9.47001 0.805722 7.09201
675 2 20.5806 8.86692 3.67783 0.918749
685 2 35.1272 19.4582 22.1576 2.3016
241 1 22.3502 9.74674 1.0759 2.34205
242 1 25.0235 11.5248 2.64578 1.54649
686 2 22.9445 12.5711 1.08115 1.46793
687 2 22.6423 12.6642 3.64587 1.4467
746 2 25.3191 9.04545 0.0327038 2.50525
747 2 25.3641 8.87067 2.41713 1.06012
313 1 27.7687 10.2058 1.76859 1.47648
758 2 26.9408 12.9433 1.42014 2.73475
759 2 27.867 13.3172 3.91043 1.39379
314 1 29.8796 11.5794 2.65867 1.84606
385 1 31.9495 10.3098 1.43506 1.21866
818 2 30.1262 9.51138 0.12438 2.04238
819 2 30.0571 9.2081 3.08731 1.87331
830 2 31.9627 13.0941 0.909087 2.49125
831 2 31.9216 12.7624 3.29382 2.14241
386 1 34.5905 11.6266 2.15995 0.935392
459 2 34.2908 8.97851 3.23414 0.993728
469 2 48.4831 19.9544 22.28 1.24399
37 1 10.9046 13.5138 1.55592 0.935463
482 2 11.3779 16.7047 0.88612 2.0537
38 1 13.4409 15.0974 2.67266 1.76114
109 1 15.7593 14.2702 1.44358 1.16675
553 2 13.0708 15.6849 -0.0668651 2.41727
554 2 15.7477 16.641 0.618894 1.5589
555 2 15.9135 17.1359 3.69307 1.17226
110 1 18.3883 15.21 2.10664 2.2524
181 1 20.2582 14.1602 0.828065 1.28087
625 2 32.8157 23.3619 22.1177 1.9168
626 2 20.5961 16.952 0.301592 2.09395
627 2 20.2929 16.9035 3.39048 1.11581
182 1 22.6372 16.023 2.31768 2.24346
253 1 24.7464 14.1065 1.33834 2.51615
697 2 36.2881 23.3082 22.3253 1.02516
698 2 24.4806 16.3609 0.19634 1.43948
699 2 25.2205 16.9564 3.93856 2.82554
254 1 27.0044 15.646 2.7061 2.15526
325 1 29.8125 14.7118 1.63707 1.19379
326 1 31.9273 15.923 2.58742 1.30645
770 2 30.3717 17.2138 0.476344 0.801103
771 2 30.0278 16.7084 3.44796 2.92517
397 1 34.2918 14.3862 1.98944 0.936542
398 1 37.087 15.4754 2.61121 1.15037
481 2 37.0063 15.8562 -0.0981388 1.02247
842 2 34.3994 17.2159 0.0568177 1.81162
843 2 34.7666 17.1515 2.70983 1.22024
483 2 39.5458 17.6547 3.22511 1.41039
493 2 39.5047 20.3157 -0.322858 2.20352
49 1 13.236 18.3585 1.32015 2.78284
50 1 15.9985 19.724 2.07716 2.14658
61 1 16.2713 22.6063 1.66603 1.62916
494 2 13.5836 20.7323 0.289513 1.33011
495 2 14.1528 20.906 4.11092 2.02117
565 2 30.1381 27.813 22.0753 0.772549
121 1 18.2056 18.7202 1.56811 2.59082
122 1 20.5145 19.7339 2.34115 1.21617
133 1 20.9156 22.4057 1.7521 1.32085
566 2 18.7014 21.3399 0.285471 0.835632
567 2 18.0125 21.1351 3.25574 0.748005
637 2 35.3043 28.2484 21.8191 1.7751
193 1 22.5678 18.5629 0.757475 1.50702
194 1 24.2728 19.6189 1.94415 2.54759
205 1 25.2508 22.2541 1.6935 1.6387
638 2 22.8965 21.3551 0.284478 1.2406
639 2 22.7761 20.911 3.47645 1.37946
709 2 38.6004 27.4358 22.0318 1.08559
265 1 26.7875 17.8746 1.03525 2.19419
710 2 27.9101 20.1419 0.180175 1.46309
711 2 26.7182 20.4614 2.72763 1.65942
266 1 29.6578 19.4166 2.27365 2.14847
277 1 29.6471 22.1489 1.62785 2.22001
337 1 32.5392 18.7736 1.1332 1.23542
782 2 32.4708 21.477 0.341931 2.14795
783 2 32.0917 20.9871 2.52451 3.59987
338 1 34.7558 19.973 2.35178 2.04495
349 1 34.6467 22.9904 1.14208 1.48261
409 1 37.3588 18.6997 1.5712 1.70484
854 2 36.5661 21.7728 0.0238959 1.78749
855 2 37.6319 22.115 3.96215 3.77334
410 1 39.5528 19.9999 2.36187 2.64538
421 1 39.2627 22.3515 0.66481 2.04383
62 1 18.5202 23.6114 2.10403 1.37388
134 1 22.8451 23.9848 2.23578 1.40427
206 1 27.8842 23.1021 3.34666 1.84044
278 1 32.0627 23.3029 2.0979 2.58262
350 1 37.3525 24.2514 1.76295 1.43069
422 1 41.3843 23.0828 2.88379 3.18113
3 1 7.16554 3.82863 5.24786 1.31115
436 2 4.52867 2.1777 4.64592 0.999018
437 2 46.417 26.6711 7.71716 17.1464
438 2 5.97146 2.83893 7.49946 9.70195
75 1 11.8754 3.21816 5.45087 1.18403
508 2 8.83762 2.40067 4.29685 1.07139
509 2 22.8959 26.3846 7.41673 1.00779
510 2 10.775 3.59194 7.98126 0.929533
147 1 16.3584 3.84719 5.0064 2.38137
580 2 13.6065 2.13205 4.47266 7.37637
581 2 13.2473 2.93312 7.4501 2.80716
582 2 16.0194 3.17036 8.22274 1.35831
219 1 20.6808 3.92776 5.18331 0.770216
652 2 18.7718 2.07498 4.06828 1.26021
653 2 32.4631 26.3808 7.39747 2.10751
654 2 20.4384 3.71135 8.12247 1.5984
291 1 25.4741 3.30227 5.09853 1.17208
724 2 22.4736 2.21843 3.95033 1.50813
725 2 23.3966 2.31107 7.19852 2.64121
726 2 25.9689 3.26194 7.93814 1.94837
796 2 27.958 2.85483 4.76855 2.21855
797 2 42.021 26.5213 7.08614 0.888105
363 1 30.3955 3.8139 5.4381 2.07782
798 2 30.2955 3.35135 8.60953 1.72352
448 2 6.57094 6.58284 4.15043 1.33936
449 2 7.19298 6.17743 7.07813 1.11234
4 1 9.51468 4.60506 6.1396 1.21849
15 1 9.55791 7.34055 5.03918 2.56629
450 2 9.62385 7.56983 8.00755 2.116
520 2 11.4865 5.67161 4.14772 0.819884
521 2 11.5112 6.17202 6.75263 0.831868
76 1 13.9662 4.84526 5.56245 1.49341
87 1 13.6445 7.6998 5.20863 0.881801
522 2 13.4642 8.24911 8.23286 1.02574
592 2 15.2414 6.15521 4.03129 1.46186
593 2 15.9069 6.88302 6.46063 1.10584
148 1 18.1121 5.08031 6.08272 2.33369
159 1 17.8259 7.60338 4.73777 1.02441
594 2 18.3171 7.38161 8.51955 1.788
664 2 20.0988 6.21457 4.14154 1.45198
665 2 20.7365 5.82853 7.1132 1.96791
220 1 22.7432 5.0374 6.44214 2.24219
231 1 22.3276 7.64936 4.97238 1.41785
666 2 23.4326 6.7156 8.91145 1.82112
736 2 25.1724 6.17138 4.29568 1.24019
737 2 25.7823 6.29452 7.38791 1.30109
292 1 27.7886 4.68466 6.38421 1.8637
303 1 27.2443 7.72135 5.18658 1.27501
738 2 27.6274 8.23547 7.55645 3.30078
364 1 32.6575 4.94789 6.28831 1.11802
375 1 32.1977 7.5247 5.11208 0.858664
808 2 30.0228 6.84757 3.34585 5.04046
809 2 29.6567 6.73175 7.12733 1.35992
810 2 32.2623 6.86872 7.88298 1.10735
16 1 11.7446 9.23039 6.18473 1.09776
27 1 11.2293 11.7822 4.99515 1.00919
460 2 8.55764 9.75252 4.62419 1.77456
462 2 11.5123 11.4093 8.07357 11.0423
28 1 13.2675 13.0362 5.63018 1.05553
88 1 16.2445 9.41094 6.46136 1.7003
99 1 15.5291 11.876 5.19377 1.11761
532 2 13.4983 10.6255 4.0131 1.21235
533 2 13.8545 11.2133 6.87738 4.29488
534 2 15.9232 11.6452 8.25313 1.60903
100 1 18.4272 13.2504 6.11879 2.5301
160 1 19.5476 9.03144 6.01755 1.54901
171 1 20.6208 11.8983 5.42387 1.20724
604 2 17.2875 10.3143 4.22175 1.44631
605 2 18.0257 10.9511 6.94754 2.35647
606 2 20.1868 11.0318 8.21593 0.989126
172 1 22.559 12.718 6.35521 1.86079
232 1 24.829 8.72802 5.11078 1.09315
243 1 24.9283 11.6963 5.14733 1.08697
676 2 22.6544 10.1501 4.2915 0.785913
677 2 22.6173 9.71066 6.71282 0.845174
678 2 25.0041 11.7818 8.32687 1.02171
244 1 27.8414 12.5889 6.51809 2.11051
748 2 27.52 10.2452 4.5036 0.655503
749 2 26.6327 10.2544 6.68992 1.84465
304 1 29.5398 8.864 5.86363 1.33245
315 1 29.9344 11.4705 5.40339 2.05358
316 1 33.0224 12.7994 6.48508 1.94231
750 2 29.0143 11.5128 8.40593 1.62495
820 2 31.6134 10.0685 4.53702 2.57991
821 2 32.0078 9.94935 7.91082 1.503
376 1 34.3098 8.5944 6.48004 1.34432
387 1 33.7191 11.3676 4.59111 2.38409
388 1 37.2216 13.7425 6.41883 2.37919
461 2 36.6716 11.2767 6.80433 1.77821
822 2 34.5753 11.0756 7.96228 1.6033
472 2 11.3197 14.73 4.00825 1.74786
39 1 13.4929 15.9016 5.63516 1.13759
40 1 15.6806 17.0003 6.58188 1.36046
474 2 41.0171 16.86 8.18902 4.96252
544 2 16.4743 14.0704 3.89482 1.9839
545 2 15.844 14.5247 6.81774 1.29433
111 1 17.6322 15.6982 5.54568 1.28857
112 1 20.3003 17.6048 6.08474 3.80959
546 2 17.9635 16.2611 8.67928 1.50627
616 2 19.8749 14.1957 4.36163 2.34103
617 2 20.0136 14.8935 6.75667 3.37846
183 1 23.0801 15.4186 5.60841 1.76675
184 1 25.544 16.597 6.35114 2.27081
618 2 21.9829 14.8114 7.68348 3.22714
688 2 25.5966 14.5521 4.12838 1.82878
689 2 24.9776 14.0045 7.41356 1.07909
255 1 27.8894 14.8577 5.7678 1.75142
690 2 27.5311 15.6633 8.62587 1.47683
256 1 30.4312 15.9509 6.48356 3.43722
327 1 32.7516 15.2587 5.33112 1.52338
760 2 30.2639 14.3933 4.56962 1.0461
761 2 29.9261 13.8643 7.62018 1.39606
762 2 33.0461 15.6334 8.22228 2.29361
328 1 35.441 17.1189 5.82692 2.30161
399 1 37.5849 15.9197 5.39461 2.04975
832 2 35.1183 14.8038 4.34452 2.71923
833 2 35.0348 14.9319 6.96521 1.94855
834 2 37.8794 15.3681 8.58643 3.67038
400 1 39.2698 17.3796 6.50708 1.17704
473 2 11.2911 14.7928 6.85087 1.43091
51 1 15.9393 19.9503 5.29551 1.44305
484 2 13.7881 18.4756 5.70978 2.93441
486 2 15.4643 19.512 8.52071 2.17035
496 2 16.2045 23.1211 4.88157 4.96746
52 1 18.1877 21.039 6.16852 1.42508
123 1 20.4288 19.8932 5.40299 1.57522
556 2 18.1901 18.5465 4.42255 0.752826
557 2 18.0236 18.3723 7.04811 1.04169
558 2 20.4685 19.5123 8.81442 2.28565
568 2 21.023 23.1226 5.62616 6.7572
569 2 20.4247 22.4889 7.89206 1.58586
124 1 22.8722 21.2965 6.49629 1.3057
195 1 24.9145 19.7504 5.17741 3.14082
628 2 22.708 17.9983 4.27418 0.888264
629 2 23.3398 18.7171 7.31212 2.48121
630 2 25.3268 19.751 8.16157 2.8699
640 2 25.5073 22.6206 4.51956 1.63785
641 2 26.1809 21.8225 6.84143 1.93558
196 1 28.5083 20.5989 5.89386 4.50849
700 2 28.4892 18.1618 4.7393 2.81696
701 2 28.1082 18.2897 7.07163 2.73479
267 1 30.6155 19.6935 4.98744 2.40397
268 1 32.6762 20.6613 6.12609 2.09557
702 2 31.3104 19.4308 7.63367 2.43507
712 2 30.0322 23.1635 5.09689 2.3064
713 2 29.0477 22.9212 7.22078 4.50979
772 2 32.7734 18.058 4.69892 1.59664
773 2 33.1856 17.7809 6.92368 1.25781
339 1 35.2668 19.9643 5.40421 1.94847
340 1 37.2981 21.757 6.48502 1.41942
774 2 34.7805 20.3925 7.91246 1.06058
784 2 34.9878 23.4092 4.17953 3.74964
785 2 34.7238 22.8127 6.63537 0.925877
844 2 37.2116 18.6158 4.2998 1.22962
845 2 36.6437 19.059 7.35498 1.22487
411 1 39.6728 20.0074 5.21608 1.20563
412 1 41.2575 20.9738 6.67453 1.7182
485 2 41.6286 18.7767 8.22945 9.58648
846 2 38.7364 19.8812 8.39817 1.37185
856 2 40.2068 22.6917 5.20216 1.63417
857 2 38.9665 23.0652 7.58367 4.74011
497 2 43.8921 22.0246 7.55183 1.38196
63 1 18.4897 23.4532 5.0906 1.58239
64 1 20.4632 25.2998 6.2956 2.65403
498 2 18.5089 24.1461 7.89589 1.16025
135 1 23.037 24.1157 5.10207 3.37099
136 1 25.2622 25.412 6.68645 1.43089
570 2 23.4004 23.1136 8.61994 1.323
207 1 27.8202 24.4535 5.80568 2.10444
642 2 26.911 24.703 8.8142 2.9657
208 1 30.3585 25.9339 5.83824 2.17977
279 1 32.7169 24.1185 4.82185 2.34871
714 2 32.0146 23.7271 8.16225 1.75501
280 1 35.1787 25.2414 5.38907 1.71336
351 1 37.8118 24.3255 4.51363 1.12412
786 2 37.0225 24.4512 7.63507 1.54879
352 1 39.8192 25.4757 6.0885 1.06588
423 1 42.4263 24.0571 5.69238 1.33605
858 2 41.5587 23.2851 7.97375 1.11695
424 1 44.6564 25.6227 6.39786 1.14191
439 2 20.834 27.1698 10.9793 1.43045
511 2 11.0715 3.6646 11.1858 1.26583
583 2 30.1606 27.8757 11.4339 1.72044
655 2 19.9974 3.64032 10.6941 0.969767
727 2 25.2739 3.70263 10.4356 0.937276
799 2 43.6609 27.7309 10.9806 1.33076
5 1 8.55205 4.13384 9.25542 6.20947
6 1 11.3526 6.42921 9.54787 1.61902
7 1 10.6004 6.11629 12.1547 2.05245
440 2 8.68115 4.86974 12.3187 2.28381
451 2 36.8606 7.41511 10.8795 1.94029
77 1 14.2516 5.27299 8.3708 1.58034
78 1 15.4651 6.69767 10.0241 2.16661
79 1 16.0844 6.22471 13.0685 0.810166
512 2 13.4576 5.8216 11.4066 0.818365
523 2 12.7805 8.25309 10.9197 2.06281
149 1 18.2058 4.85888 8.34338 1.92235
150 1 20.1106 6.1733 9.67316 0.782911
151 1 20.4885 5.7529 12.5032 0.963996
584 2 17.8915 5.04225 11.2989 1.19711
595 2 17.482 7.63389 10.8526 1.96524
221 1 22.6057 4.2029 9.00736 1.63757
222 1 26.1086 6.43276 10.2022 1.37344
223 1 25.3698 6.19689 13.0956 1.36315
656 2 23.3678 4.82282 11.8738 2.48874
667 2 22.4108 7.72787 10.9295 2.02031
293 1 27.9454 5.00838 9.18509 1.52894
728 2 27.5009 4.78816 12.1209 2.14361
739 2 27.766 8.40815 11.9929 2.02667
294 1 30.746 6.28467 10.0624 1.49954
295 1 29.0369 6.22771 12.8695 2.18025
365 1 32.8825 4.09727 9.25081 2.87985
800 2 31.5797 4.36457 11.8043 1.78896
811 2 32.2511 7.82159 11.5311 1.76586
366 1 33.8524 6.06422 10.5937 2.39302
367 1 34.5069 6.03146 12.791 2.61983
17 1 11.1953 9.42511 8.67962 5.19146
452 2 10.6627 8.73196 11.3048 1.41551
463 2 10.7147 11.2017 10.2593 2.95502
18 1 13.1785 10.7879 9.56594 1.52816
19 1 12.7552 10.3127 12.3431 2.15334
29 1 13.5116 14.3067 8.41442 1.86269
89 1 15.5926 9.17923 9.45152 1.39465
464 2 13.9815 13.2815 11.9989 2.01558
524 2 14.8732 8.8532 11.8491 1.53395
535 2 16.3856 11.139 10.6447 4.01378
90 1 18.2878 9.70114 9.90158 1.96243
91 1 17.6741 10.1863 12.5079 1.53565
101 1 18.4213 12.8063 8.9462 1.70912
161 1 21.2618 8.19659 8.61563 1.82089
536 2 18.4172 13.5215 11.4429 2.72642
596 2 19.6713 8.36303 11.4223 1.73463
607 2 20.2045 11.5813 11.5756 1.23363
162 1 22.8836 10.1165 9.58424 1.62799
163 1 22.779 9.95604 12.2729 3.38081
173 1 22.6439 12.7503 9.13612 2.40181
233 1 25.1899 8.83698 8.12268 2.84089
608 2 22.5029 13.4016 11.694 2.23624
668 2 25.1462 8.68612 11.3935 1.68192
679 2 24.5564 11.9265 11.7427 2.64974
234 1 26.748 9.89239 9.57332 4.68159
235 1 27.3674 10.811 13.3512 2.35036
245 1 27.2597 12.8502 9.66714 1.72226
680 2 27.2206 13.0036 12.3173 1.07105
305 1 30.121 8.6069 9.17939 2.69049
306 1 32.1344 10.3707 10.5276 2.27297
307 1 32.3336 10.3263 13.0271 2.95106
317 1 31.7525 12.5127 9.1101 1.66859
740 2 30.2919 9.4624 12.0572 3.81159
751 2 30.0135 12.004 11.833 1.85086
752 2 32.2005 12.912 12.6961 3.45283
377 1 34.4028 8.65353 9.0277 1.22301
378 1 36.727 9.86028 9.25737 1.6756
379 1 37.0957 10.2871 12.7323 1.0643
389 1 36.7835 13.31 8.81743 1.60815
812 2 34.7226 9.65717 11.5143 1.41857
823 2 33.7282 11.9827 10.6603 3.54984
824 2 36.4223 12.9159 11.6623 1.23729
30 1 16.1994 14.3333 9.65074 2.28272
31 1 15.9128 14.652 13.3346 2.37498
41 1 15.3915 16.9701 9.01431 1.42125
476 2 14.9 17.0238 12.1144 1.75822
102 1 20.1682 14.532 9.71054 2.5772
103 1 20.424 14.7434 14.1879 4.37868
113 1 20.1927 16.9818 9.83068 3.02918
547 2 18.4029 16.2675 11.9743 1.42663
548 2 20.7575 17.4792 13.4929 3.44967
174 1 24.8422 14.2547 10.2049 1.64457
175 1 24.931 14.3821 13.5038 1.75528
185 1 23.9139 16.7496 9.01813 2.28848
619 2 22.5644 16.7215 11.9281 4.06877
620 2 24.7735 17.9484 11.4163 3.32625
691 2 27.0203 16.3987 11.1254 1.42142
246 1 29.5151 14.3613 10.3218 1.2951
247 1 30.2178 14.3258 12.6531 1.81872
257 1 29.9614 17.6641 9.59081 3.24988
692 2 29.15 16.6199 12.1001 1.72843
763 2 32.3103 15.0293 10.919 1.76806
318 1 34.9801 15.0837 9.90633 2.45351
319 1 34.8857 14.5186 12.9225 1.16933
329 1 34.368 17.7511 9.29914 2.27598
764 2 35.1026 17.284 12.4171 0.909574
835 2 36.7509 15.5866 11.2652 1.80312
390 1 39.5205 13.8869 10.1388 1.88133
391 1 39.085 14.2774 12.6327 1.14053
401 1 38.9145 17.4061 9.49067 1.54985
475 2 13.4287 15.8359 10.3875 1.90098
836 2 39.3678 16.9856 11.7298 2.82367
42 1 17.5648 18.5399 10.0602 1.5081
43 1 17.6979 18.8574 13.1477 2.15315
53 1 17.8177 21.3017 8.87746 1.30576
54 1 20.3906 22.6103 10.4024 1.31663
55 1 20.6136 21.9488 13.311 1.13052
488 2 17.6655 21.0299 11.3879 1.55694
559 2 20.1234 19.5768 12.1207 1.98701
114 1 21.7945 18.7605 10.7019 2.76176
115 1 22.6417 18.9066 13.2448 1.79005
125 1 23.1669 20.2977 9.09709 2.92029
126 1 25.3221 22.4193 10.3004 2.00324
127 1 26.1258 22.052 13.263 2.3495
560 2 22.445 20.8993 11.5246 2.30243
631 2 25.5208 20.2055 11.0848 1.46625
186 1 27.2243 18.8718 9.85384 2.47762
187 1 27.2608 18.5149 13.0704 1.00729
197 1 28.3907 20.5835 8.19354 2.1252
632 2 28.0823 21.2356 11.0442 2.95947
198 1 29.9481 22.5079 9.55239 2.09806
199 1 29.9041 22.4078 12.466 1.89147
258 1 32.3511 18.272 10.0342 2.66647
259 1 31.949 18.6599 12.9379 1.40589
269 1 32.6028 21.2327 8.9511 1.02565
703 2 29.9565 20.33 10.4696 2.1772
704 2 32.324 21.7732 11.6983 1.25788
270 1 34.302 23.1286 9.41842 1.29474
271 1 34.4204 22.7547 12.5736 1.30932
330 1 36.5706 18.7304 10.0717 1.18181
331 1 37.1112 19.126 13.1752 1.57094
341 1 37.0345 21.9248 8.77588 1.18217
775 2 34.4758 19.683 11.3609 1.78903
776 2 36.4436 21.2266 11.6653 1.43621
342 1 39.5442 22.8153 9.67335 2.56578
343 1 39.0099 22.5678 12.2143 1.02558
402 1 41.2286 18.3905 10.7068 1.14249
403 1 41.2312 18.4412 13.2174 0.810773
413 1 41.3333 21.2313 10.0147 1.44449
847 2 38.8853 20.0231 11.2625 0.609336
848 2 41.1606 21.2313 12.4931 1.21565
414 1 43.8288 22.9599 9.95265 1.39851
415 1 43.746 22.4615 12.8956 0.834093
487 2 43.4297 19.9111 11.8276 1.2875
65 1 20.87 25.1 8.87462 1.28089
500 2 21.2598 24.6909 11.7057 2.34736
66 1 22.9943 26.3605 10.4706 2.11661
67 1 22.5349 26.8517 13.3778 1.49035
137 1 24.9621 25.297 9.5831 3.1081
571 2 23.0055 23.568 11.3302 2.85792
572 2 25.8156 25.2285 13.0272 2.27783
138 1 27.0818 27.3823 9.77153 2.63323
139 1 27.8517 27.6333 12.7991 3.35064
643 2 27.8528 23.6474 11.9432 3.03383
209 1 29.983 25.3181 9.01471 2.9365
210 1 32.3976 26.6964 9.88219 1.19531
211 1 32.2717 26.6265 12.8134 0.946525
644 2 29.5347 25.5702 13.298 2.5612
715 2 31.6143 24.2536 10.7996 1.93546
281 1 34.5529 25.5818 8.67751 1.38939
282 1 36.4361 26.3303 10.1843 1.51052
283 1 36.389 27.235 12.611 1.63063
716 2 34.0799 25.1897 11.497 0.755129
787 2 36.7601 23.558 11.0592 1.16321
353 1 38.9 25.8539 8.73088 1.5279
354 1 41.8189 26.1832 9.79536 0.932052
355 1 41.245 26.3659 12.7232 1.05585
788 2 39.577 24.8355 11.3753 2.24067
859 2 41.8021 23.5785 11.3256 1.58672
425 1 44.1127 25.2967 8.92819 1.28611
426 1 46.1601 26.4792 10.0815 2.00585
427 1 46.2775 26.0168 12.5025 2.27707
499 2 45.6341 23.712 11.2065 1.81874
860 2 43.2627 25.2836 12.27 1.15419
441 2 9.48876 5.0773 14.7381 2.72315
442 2 11.6154 5.66922 15.839 2.7607
8 1 13.6407 7.44974 13.6544 1.43263
9 1 13.4601 7.30064 16.806 1.25861
513 2 13.6611 5.06 15.2694 2.58223
514 2 15.8359 5.8173 16.0347 0.902274
80 1 18.7112 7.2233 13.5409 1.44977
81 1 18.1362 7.42559 16.4294 1.55166
585 2 18.7158 4.97146 14.0569 4.07052
586 2 21.225 6.1543 15.4001 1.55664
152 1 23.1699 7.24397 13.7018 1.74708
153 1 23.0769 7.63809 16.3848 1.23382
657 2 37.2443 29.1137 14.9474 1.20207
658 2 25.2291 6.60761 16.9344 3.38273
224 1 27.6616 7.88377 14.762 2.11732
225 1 27.5446 7.99685 17.6021 2.59274
729 2 26.7392 5.59699 14.9559 2.94189
296 1 31.3691 7.9115 14.1199 2.58455
297 1 32.0798 6.91994 16.8515 2.61597
730 2 29.4174 6.43974 15.9271 2.38142
801 2 31.6824 4.79164 14.4446 0.844709
368 1 36.9496 7.46338 13.4524 1.28296
369 1 36.9198 7.15872 16.4591 1.11319
802 2 34.399 6.29906 15.2524 2.35094
453 2 11.4537 8.44653 13.6752 2.4446
10 1 15.8844 8.72148 17.6692 2.12006
20 1 15.8932 11.7861 14.0538 2.04327
21 1 15.5484 11.3346 16.5944 1.27176
454 2 13.4646 10.186 14.8683 1.34925
525 2 15.764 8.82707 15.12 1.5386
22 1 18.0997 13.0113 18.1684 1.206
82 1 19.9839 8.66981 17.7354 1.21981
92 1 20.4358 12.2848 14.2189 4.09477
93 1 20.239 11.2108 16.6331 1.58887
526 2 17.9943 9.84287 15.074 1.05752
537 2 18.0317 12.9414 14.6153 2.87488
597 2 20.8524 9.08384 14.3103 1.6916
94 1 22.7448 12.9656 18.0749 1.25532
154 1 24.8938 9.53489 16.9888 1.75563
164 1 25.2191 11.8482 13.9841 1.68428
165 1 24.8152 12.1319 16.8112 1.82947
598 2 22.8721 10.7179 16.3946 3.40969
609 2 22.4143 12.7558 15.0541 3.10259
669 2 24.4729 9.27212 14.1108 2.36719
166 1 27.2938 12.9769 18.0546 1.17517
670 2 27.7835 10.6945 16.9142 2.03415
681 2 27.2255 12.712 15.322 1.21795
226 1 29.9781 9.60048 18.2707 1.80511
236 1 29.6076 12.0373 14.4777 1.43925
237 1 29.7384 12.1576 17.1453 1.19092
238 1 32.5236 12.4518 17.5992 1.51249
741 2 29.5898 9.5969 15.589 1.15023
742 2 32.451 9.2337 16.4494 2.97706
753 2 32.5364 13.3189 14.7209 2.18439
298 1 35.0245 8.98027 17.7141 1.50915
308 1 34.6075 11.7425 13.2565 1.58472
309 1 34.4306 11.3296 16.241 1.40425
310 1 37.339 13.5856 17.6026 2.18625
813 2 35.4009 9.1756 13.9939 4.76676
814 2 37.8435 9.81227 15.4208 1.78576
825 2 36.945 12.4127 14.819 1.38182
370 1 39.6842 8.96019 17.1158 1.32573
380 1 39.3025 11.5526 13.6577 1.72481
381 1 39.3208 11.9292 16.6274 1.80711
382 1 41.1404 13.0903 18.0571 1.57704
465 2 41.2415 13.2364 14.9464 1.61986
466 2 16.1474 13.8634 15.7132 3.64136
32 1 18.2494 15.998 14.6633 1.66202
33 1 18.5819 15.1366 17.0102 1.74933
34 1 20.3 17.2072 18.449 1.74865
538 2 20.8041 13.8284 16.6508 1.22661
549 2 20.541 17.04 15.8051 1.004
104 1 23.3238 16.1408 15.3994 1.90288
105 1 22.7317 15.8712 17.9306 1.11135
106 1 25.5555 16.7945 18.1033 1.82396
610 2 25.3971 14.6674 16.4379 1.08783
621 2 24.4724 17.0839 13.6823 3.44442
176 1 27.525 15.6101 13.8761 1.32548
177 1 27.9076 15.4777 16.7795 1.39084
178 1 29.855 17.2876 17.8325 1.46675
248 1 32.4388 15.741 13.3671 1.45143
249 1 32.6017 15.583 16.5234 1.24407
682 2 30.4282 14.5412 15.6711 1.35491
693 2 30.2587 17.8557 14.7194 2.24455
250 1 34.7086 17.2728 17.5952 1.19846
320 1 37.1971 16.1409 13.7377 1.44797
321 1 37.3937 16.1227 17.149 2.07579
754 2 35.1446 14.172 15.8509 0.913326
765 2 34.1585 17.0366 14.8498 0.784322
322 1 39.4559 17.3935 17.8018 1.31987
392 1 41.621 15.5799 14.2643 2.33914
393 1 41.5526 15.5972 16.7411 1.36431
826 2 39.3728 15.3659 15.8147 2.59026
837 2 39.1219 18.1892 14.8074 2.61567
394 1 43.9683 17.4261 17.7164 1.44235
477 2 43.662 17.3266 14.8295 1.068
44 1 20.583 19.6934 14.7503 1.83033
45 1 20.7803 19.7019 17.0611 1.23489
478 2 18.3151 18.2312 15.8963 1.43206
490 2 20.786 22.1577 16.1345 0.825886
46 1 23.1121 20.7188 17.8259 1.45855
116 1 25.2854 19.7912 14.1533 1.08054
117 1 25.7959 19.2999 17.4372 2.33593
550 2 22.8434 18.4395 15.6226 2.37064
561 2 23.0574 21.5995 14.2434 2.36038
562 2 24.6657 21.5492 15.9795 3.80506
118 1 28.4277 20.7577 17.762 2.67963
622 2 27.4816 17.704 15.8253 1.01557
633 2 27.7403 20.62 15.2742 1.08575
188 1 29.6373 19.8665 13.1122 1.65583
189 1 30.2017 19.8249 16.5198 2.14019
190 1 32.1865 21.2812 17.3344 1.03897
634 2 30.1633 22.5984 16.2262 2.28982
694 2 31.9448 18.2658 15.9067 2.49333
705 2 31.9417 21.1821 14.7168 1.01557
260 1 34.4301 20.0563 13.9464 1.25282
261 1 34.3111 20.1505 16.3965 0.923891
262 1 36.6188 21.3954 17.0428 1.89693
706 2 34.1464 22.4988 14.9322 1.41223
766 2 36.488 18.1326 16.1359 2.20171
777 2 36.3089 21.1591 14.5392 2.13013
332 1 39.1539 20.2172 13.7671 1.82167
333 1 39.0765 19.9237 16.7854 1.2288
334 1 41.4075 21.3996 17.5459 1.26547
778 2 38.8099 22.2245 15.2368 1.01461
838 2 41.4734 18.8202 16.1822 1.68834
849 2 41.4743 21.0924 15.1444 1.11176
404 1 43.9502 20.2709 14.0796 1.27809
405 1 44.7311 20.2293 16.5941 1.88081
406 1 46.7211 21.5629 18.058 1.20637
489 2 46.2507 21.745 13.5944 5.73103
850 2 43.7773 22.4477 16.1712 1.31299
56 1 22.653 23.9193 14.0218 1.41384
57 1 23.2642 23.3353 17.2317 1.60073
58 1 25.4255 25.0339 18.5243 1.30973
502 2 22.6255 26.529 15.9473 0.90733
573 2 24.6899 24.518 15.6182 1.75496
128 1 27.7624 23.6073 14.7624 2.59713
129 1 27.8274 24.0473 17.2597 1.46296
574 2 27.5068 26.829 15.5228 1.21898
130 1 30.1761 25.0242 17.477 1.40122
200 1 31.9578 23.7116 13.5073 0.841916
201 1 32.4406 23.7668 16.7392 1.15786
645 2 30.9093 25.2934 15.2323 3.27851
646 2 32.5596 27.1999 16.1427 1.54875
202 1 34.6765 24.8123 17.772 1.2516
272 1 36.2686 23.6849 13.6237 2.24315
273 1 36.6715 23.9917 16.0186 1.12288
717 2 33.673 25.1229 14.788 2.01331
718 2 36.4215 26.2729 14.914 3.48268
274 1 38.8253 25.3139 16.9895 1.50887
344 1 41.3343 23.7495 13.7337 1.16364
345 1 40.8498 23.623 16.288 1.94939
789 2 38.7482 25.2514 13.9068 0.839487
790 2 41.354 27.6557 15.5664 5.13547
346 1 43.8972 25.1138 17.5042 2.08849
416 1 46.5396 23.9878 14.1656 1.79562
417 1 45.9167 23.765 16.8417 1.87543
861 2 44.0126 25.2384 14.6796 0.951905
862 2 46.154 26.9721 15.59 1.83669
418 1 49.1355 24.2766 17.8923 2.52513
501 2 20.5493 25.1077 14.7714 1.31951
68 1 24.7961 27.6109 14.3077 1.39357
69 1 25.4068 27.4403 17.0198 1.36068
70 1 27.6569 28.7771 17.5313 1.41469
140 1 29.9806 28.3129 14.2592 1.27562
141 1 30.2593 27.7226 17.0362 1.27109
142 1 32.495 28.9552 17.9311 1.62431
212 1 34.4172 27.5087 14.1906 1.70222
213 1 34.7576 28.6488 16.8495 1.73056
214 1 37.119 29.5978 17.7611 1.20843
284 1 39.0165 28.0246 13.3705 1.23583
285 1 39.2262 28.1845 15.9891 2.22095
286 1 41.2669 28.9234 17.6929 1.29728
356 1 43.408 27.9144 13.4856 1.20672
357 1 43.9058 28.4476 16.1856 1.46605
358 1 46.1363 29.0449 17.105 2.91434
428 1 48.3495 28.0094 13.9483 1.6289
429 1 48.4352 27.4977 16.3998 5.06273
430 1 51.3981 29.249 17.8268 2.3423
443 2 11.4769 6.76899 18.5811 2.06141
444 2 13.2998 8.16318 19.6263 2.02708
515 2 15.2793 6.32853 18.9148 1.39846
516 2 18.3698 6.99644 19.6915 1.62571
587 2 20.233 6.33052 18.0827 2.94711
588 2 22.6919 7.47191 19.6946 1.48829
659 2 24.9796 6.49371 19.3982 2.40078
660 2 28.2399 7.57385 20.1959 1.67791
721 2 19.0519 -0.205369 -0.481186 6.08183
731 2 29.1661 6.59 18.0809 3.15635
732 2 32.6042 7.26696 19.2447 1.56217
793 2 36.8072 7.97546 22.0658 0.801296
803 2 49.3003 30.38 18.1905 1.63591
804 2 36.7199 7.77164 19.3973 0.580932
11 1 15.7138 9.09001 20.8243 1.96044
455 2 13.6381 10.4003 18.3188 1.4856
456 2 15.8199 13.063 19.6909 3.22115
12 1 18.0594 10.4808 21.2504 1.73816
23 1 18.3147 13.2797 20.7511 2.00682
83 1 20.0122 8.96066 20.4469 1.2279
527 2 17.8091 10.4938 18.8764 1.56702
528 2 20.4634 11.6795 19.289 0.945036
84 1 23.2603 9.71632 21.2196 1.50261
95 1 22.6284 12.2034 20.515 1.32558
155 1 25.2787 9.11367 19.9456 1.24609
599 2 22.4509 9.66621 18.504 1.79582
600 2 25.7816 11.3989 20.7739 2.28303
156 1 27.9794 9.63815 21.8196 2.08087
167 1 27.5389 13.075 20.9802 2.1417
671 2 27.7199 9.84208 19.1927 2.55461
227 1 30.5314 8.93726 21.3234 1.13937
228 1 32.3292 10.7209 21.5954 0.868198
239 1 32.7269 13.1172 20.3186 1.36045
672 2 29.8368 11.8914 19.4486 2.08301
743 2 32.3168 9.94506 18.3113 2.73224
299 1 34.7418 9.4827 20.3545 1.0063
300 1 37.0372 10.5255 21.0458 0.775365
311 1 37.0586 13.6355 20.626 1.67207
733 2 34.5798 12.1522 22.3323 0.958504
744 2 35.1797 11.9607 19.5092 1.34789
815 2 37.281 10.2285 18.1889 0.962148
371 1 39.035 8.92556 20.1967 1.03658
372 1 41.7995 10.9293 22.0063 1.84049
383 1 41.736 13.2384 20.8487 1.73396
805 2 24.9361 3.7293 -0.238781 0.753334
816 2 39.5682 12.2398 20.3078 1.19383
24 1 20.5326 13.7568 21.865 1.45018
35 1 20.3955 16.5934 21.3396 2.22189
468 2 17.9371 15.9467 19.6687 1.4837
539 2 20.9828 14.6348 19.4389 1.75273
96 1 25.1746 14.7325 21.9974 1.61202
107 1 25.1165 16.8374 20.5004 1.29621
540 2 23.1487 14.7649 20.4076 1.79941
611 2 24.9836 13.5519 19.0003 2.35606
612 2 27.4393 15.6385 20.3324 2.49851
168 1 29.9775 14.4577 21.0639 1.1314
179 1 29.3517 17.2406 20.6613 2.50111
683 2 30.1106 14.7943 18.2245 1.06418
684 2 31.9836 15.4523 19.9813 2.19877
240 1 34.5289 15.1889 22.343 1.85963
251 1 33.9416 17.5907 20.4352 2.06187
745 2 37.7989 15.5133 22.3948 1.51593
755 2 34.4403 14.1391 18.2833 1.30592
756 2 36.1699 15.9768 20.1482 1.42927
312 1 40.0588 14.9252 21.9351 1.08616
323 1 39.3369 17.3276 20.6421 1.38105
817 2 42.4738 15.9965 21.9175 1.63832
827 2 39.1331 14.8222 18.9879 1.19818
828 2 42.4307 15.3555 19.513 2.23516
384 1 44.7694 14.5831 21.6553 2.18312
395 1 43.8897 17.3471 20.3122 1.40034
467 2 16.1574 14.7079 17.6574 3.35817
480 2 20.8175 19.5013 19.7446 2.05106
36 1 22.7869 18.1594 21.5458 1.31796
47 1 22.9346 20.9096 20.6342 1.32339
48 1 25.6954 21.4652 21.7182 1.5648
551 2 22.9412 18.5858 18.7691 1.49606
552 2 24.9021 19.2806 20.1211 1.65153
563 2 25.1851 22.615 18.1573 5.27657
108 1 26.9088 19.0109 21.7224 1.32925
119 1 28.2459 21.5016 20.5642 3.74812
623 2 27.3322 17.9518 19.1006 2.3866
120 1 30.1614 22.6371 21.9605 1.30721
180 1 31.1163 18.5469 21.2209 2.64881
191 1 32.2974 20.9735 20.7089 1.17444
624 2 30.0738 20.4779 19.5788 5.35427
635 2 29.1534 22.7423 18.8594 4.66488
695 2 32.2336 18.3286 18.3064 1.262
192 1 34.6065 21.6678 21.2309 1.74998
252 1 37.0971 17.9339 21.7064 2.10991
263 1 37.0964 20.8129 21.0549 2.48825
696 2 34.1269 19.7935 19.0674 1.47335
707 2 34.124 22.4449 18.7218 1.30441
767 2 36.2631 18.7332 18.8093 2.13222
264 1 39.2596 22.7716 20.9085 1.84519
324 1 41.9901 18.599 21.3485 1.74982
335 1 41.7534 21.3862 20.3274 2.17833
757 2 40.0157 19.5886 22.2325 1.69662
768 2 39.5292 20.4158 19.3399 1.16958
779 2 38.5447 23.1254 18.0234 1.26997
839 2 41.719 18.9049 18.9616 1.16935
336 1 43.9605 22.9786 21.5203 2.10047
396 1 46.2785 18.8637 21.9 1.8695
407 1 46.2962 21.5666 20.5826 1.49586
479 2 46.4287 19.2517 19.582 2.4259
829 2 44.5251 20.5604 22.198 2.756
840 2 44.0187 19.795 19.674 1.01305
851 2 43.8324 22.7274 18.8302 0.804643
408 1 48.8503 22.4155 22.0443 0.905508
491 2 20.879 21.931 18.9332 1.53341
59 1 24.8702 24.0363 20.863 2.34402
492 2 22.2894 23.937 19.9305 2.83474
503 2 22.8485 25.6956 19.246 5.88084
60 1 27.6683 26.13 21.7479 1.08051
564 2 26.9909 23.7751 19.9088 3.3696
575 2 27.8688 26.5932 18.8605 0.939404
131 1 30.4388 25.2006 20.5582 1.17809
132 1 32.5934 26.3068 21.6243 1.53765
636 2 31.878 24.0101 19.2245 3.24977
647 2 33.1528 26.3621 18.8312 1.04232
203 1 34.3522 24.9201 21.024 1.78952
204 1 36.6261 25.8607 21.2641 1.32341
708 2 36.0029 23.4797 19.6499 1.74595
719 2 37.0207 26.5328 18.2364 1.40077
275 1 38.9454 25.5931 19.8174 1.41937
276 1 41.2221 26.8088 20.8365 1.33956
769 2 27.7159 15.9677 -0.0296155 2.08516
780 2 41.6761 24.418 19.2556 2.96983
791 2 41.5767 26.2695 18.431 3.01459
347 1 43.7768 25.4575 20.3172 1.48999
348 1 46.364 26.1868 21.5524 1.65377
841 2 46.473 23.7105 22.2368 1.11852
852 2 47.0341 24.0175 19.953 2.08864
863 2 46.6461 25.9452 18.5134 0.924137
419 1 48.6027 25.6901 20.819 2.53223
420 1 51.2999 26.214 21.6818 1.98486
504 2 25.337 27.745 19.8507 1.16317
71 1 27.9202 29.1215 20.5183 0.792773
72 1 29.9475 30.6658 21.6384 0.832493
143 1 32.6038 29.014 20.5338 0.929389
576 2 30.2971 28.1895 19.7155 1.02812
144 1 34.4333 30.8204 21.7717 1.042
215 1 37.2694 29.4252 20.2642 1.75861
648 2 35.0832 27.8122 19.5096 1.38842
216 1 40.0215 30.8159 21.6312 2.08587
287 1 42.6967 29.6513 20.5846 1.6997
720 2 39.7803 28.3695 19.2284 2.66917
288 1 44.6937 30.929 22.194 1.42279
359 1 45.1893 29.189 20.0625 2.33702
781 2 44.257 27.6337 21.9683 1.6316
792 2 43.761 27.86 18.4319 2.38151
360 1 48.4021 31.0892 21.3498 1.92884
431 1 50.8888 29.4202 20.6084 2.17381
853 2 34.7447 20.3087 -0.430271 1.95955
864 2 47.7528 28.7753 19.7142 2.29498
432 1 53.4845 30.7511 20.8485 1.40003
ITEM: TIMESTEP
300
ITEM: NUMBER OF ATOMS
864
ITEM: BOX BOUNDS xy xz yz pp pp pp
-7.0086342833135762e-01 5.6087707956704499e+01 1.4223833911556515e+01
-6.4637774636799095e-01 3.2193068846809510e+01 1.4208088257158641e+01
-5.9655451057284514e-01 2.2605156456405929e+01 8.2030435799405197e+00
ITEM: ATOMS id type x y z f_grace_gamma
433 2 41.8408 7.64749 22.5293 2.15917
434 2 1.05769 0.682524 0.486268 1.88067
435 2 44.1289 25.1379 3.39042 1.55724
445 2 29.9775 3.62956 -0.0891755 1.55068
1 1 4.02889 1.95537 1.20128 2.69558
2 1 6.74446 4.29019 2.32788 1.74658
505 2 18.0903 7.8832 21.9911 1.65664
506 2 7.03851 0.483942 -0.165217 1.16818
507 2 6.76396 0.886206 2.8559 1.35046
517 2 21.7215 11.0308 22.5622 2.53276
73 1 8.92546 2.12734 1.54583 1.39563
74 1 11.6516 2.8267 2.81533 2.5739
577 2 24.0608 23.5946 -0.56594 3.72793
578 2 25.5508 9.1308 22.5747 2.68214
579 2 25.7975 25.3001 3.9176 2.24272
589 2 10.0565 3.66862 0.27443 3.32303
145 1 13.6747 1.33915 1.31998 1.68943
146 1 16.0223 3.18976 2.35274 1.36728
649 2 27.9538 23.4277 0.293741 1.37133
650 2 16.2602 1.14417 0.731847 1.31948
651 2 29.8921 25.0692 3.61538 1.99065
661 2 15.5084 4.20354 -0.289615 5.2395
217 1 18.8276 2.31962 1.2237 1.45039
218 1 20.7475 3.68708 2.14202 1.65514
722 2 21.0877 1.65845 -0.274008 1.3183
723 2 20.6456 1.17044 2.55564 2.1157
289 1 23.0595 2.51417 1.09541 1.58184
290 1 25.0149 3.49332 2.15302 1.46014
794 2 25.5088 1.6053 -0.477299 3.4476
795 2 26.5766 1.20366 2.9371 3.81886
361 1 27.7008 2.77958 1.85627 2.14508
362 1 30.912 3.11682 2.99733 2.92585
13 1 6.41092 6.76268 1.75449 1.54753
446 2 4.52304 4.16664 0.111449 4.51773
447 2 4.45916 5.162 3.52471 1.21968
457 2 4.34937 6.98408 -0.668121 3.98309
14 1 8.965 7.77792 2.35156 1.09225
85 1 11.1557 6.21099 1.53723 1.24514
518 2 8.57158 5.36819 0.63496 3.00683
519 2 9.37845 4.54358 3.05279 0.740974
529 2 8.44485 7.73261 -0.108104 1.73705
86 1 13.6356 8.14514 2.13429 2.11825
157 1 15.1829 5.92477 0.761296 4.09655
590 2 13.3946 4.33787 0.788422 1.69438
591 2 13.6865 4.13785 3.21635 2.3321
601 2 13.7731 7.24501 -0.504543 2.54529
158 1 18.2942 7.41544 2.15157 3.10725
229 1 20.9287 6.16344 1.83409 2.13295
662 2 18.1194 5.03012 -0.169597 1.50214
663 2 18.0861 4.49389 3.45484 2.20443
673 2 17.7881 8.16357 -0.319155 2.78222
230 1 22.8673 7.54614 1.90996 1.89533
301 1 25.1594 6.37988 1.65328 1.06088
734 2 23.3043 5.15729 0.0909492 1.60017
735 2 22.8074 5.14681 2.8826 1.3937
302 1 27.428 7.67665 1.45606 1.72338
806 2 27.2908 4.84092 0.613414 1.8828
807 2 27.9097 5.45806 3.21705 1.63794
373 1 30.2674 6.48807 0.759123 2.90207
374 1 32.0151 7.75811 2.05453 1.71661
458 2 6.15467 9.34657 1.31572 23.2041
25 1 8.18597 10.1548 1.29177 1.71212
26 1 10.5449 10.4995 2.30897 2.17407
470 2 8.26353 13.4326 0.790719 1.4538
471 2 36.1218 12.2479 4.06053 2.9012
530 2 11.0333 8.84518 0.566377 0.746751
531 2 11.4075 8.36909 3.47143 4.22946
541 2 10.5781 11.3156 0.0250146 2.23536
97 1 13.4428 10.3569 1.10883 2.78761
98 1 15.248 11.9208 2.60688 1.27081
542 2 13.7451 13.0565 0.60721 1.87412
543 2 13.0202 12.4674 2.86535 2.7676
602 2 15.4231 8.67028 0.601347 1.62476
603 2 15.8358 8.83888 3.2541 1.17981
613 2 15.8482 12.0602 -0.306097 1.87558
169 1 17.9398 10.5081 1.37412 1.48436
170 1 20.6516 11.434 2.29786 1.1238
614 2 17.9445 13.1353 0.372497 1.16419
615 2 18.8106 12.7267 3.06301 2.16903
674 2 19.5383 9.05818 0.866838 6.96508
675 2 19.7792 8.99543 3.28597 2.04021
685 2 34.8156 19.1919 22.3984 1.17504
241 1 22.4518 9.8985 1.06623 1.99623
242 1 25.0597 11.3057 2.6252 2.11491
686 2 22.5292 11.928 0.615374 5.57965
687 2 22.7442 12.4621 3.38293 3.42984
746 2 25.5132 8.92005 0.445644 4.35727
747 2 25.0488 8.95202 2.34575 33.5124
313 1 27.7528 10.1279 1.53449 1.39177
758 2 27.8455 13.0648 1.39752 2.06554
759 2 28.5793 13.2874 3.7195 6.70677
314 1 30.1626 11.5273 2.62832 1.20985
385 1 32.0274 10.1006 1.33821 2.08644
818 2 29.981 9.92425 -0.532754 5.12844
819 2 30.0492 8.95124 2.78392 1.16692
830 2 32.1283 13.2744 0.603868 1.18707
831 2 32.4241 13.1594 4.0024 1.43204
386 1 34.4627 11.8306 2.00979 1.50185
459 2 34.4984 9.11448 3.0808 20.8393
469 2 6.64768 11.3661 -0.294351 3.0217
37 1 10.965 13.5631 1.78161 1.74662
482 2 11.1452 16.9303 0.8655 1.409
38 1 13.6326 15.1282 2.20973 5.74684
109 1 15.8114 14.1728 1.28872 2.84485
553 2 26.534 24.0406 22.2666 6.68145
554 2 15.8258 17.2801 0.52056 1.1856
555 2 16.2069 17.4357 3.43344 2.33081
110 1 18.7966 15.5375 2.0898 3.2336
181 1 20.5987 13.845 0.711695 1.58556
625 2 32.5416 23.3728 22.3186 1.62813
626 2 20.9408 17.0448 0.595635 1.99054
627 2 20.1537 16.8492 3.42943 1.31514
182 1 22.8919 16.1996 2.35698 4.03969
253 1 25.0518 14.2677 1.42014 2.32762
697 2 22.9465 14.6348 -0.231414 1.36531
698 2 24.7667 16.898 0.419871 1.42297
699 2 25.24 17.216 3.5738 1.21806
254 1 27.0427 15.4582 2.64475 1.81125
325 1 29.8822 14.8017 1.52052 3.12975
326 1 31.9402 16.1156 2.3601 2.71268
770 2 29.5627 17.8847 0.917292 3.32379
771 2 29.4918 16.5728 3.61965 3.47581
397 1 34.0859 14.6234 1.98014 2.52645
398 1 37.4095 15.234 2.2623 1.94212
481 2 9.22104 15.6694 -0.072353 2.38545
842 2 34.8831 17.3983 0.416439 1.7806
843 2 35.4206 17.6426 2.51997 2.62521
483 2 11.6328 17.5872 3.75965 1.71545
493 2 26.0456 28.4131 22.5035 2.17322
49 1 13.2357 18.5107 1.48594 2.38366
50 1 15.8837 19.798 1.98858 2.12687
61 1 16.445 22.6914 1.52962 1.5017
494 2 14.1343 20.3427 0.382797 4.08957
495 2 14.1343 21.1247 3.83571 2.52827
565 2 30.4952 28.3453 22.6332 1.02221
121 1 18.0183 18.8803 1.5458 2.37866
122 1 20.5498 19.5301 2.02011 2.07515
133 1 21.0428 22.4915 1.61182 2.15485
566 2 18.4389 21.0883 0.569868 1.83446
567 2 17.6525 21.1454 3.3457 1.66038
637 2 35.6335 28.3021 21.6382 1.88771
193 1 22.5756 18.654 0.717639 2.01569
194 1 24.7525 19.7579 1.91118 3.0463
205 1 25.1964 22.4305 1.44691 3.62713
638 2 22.905 21.9288 0.286623 2.83063
639 2 22.4158 21.0383 4.31317 5.91174
709 2 38.872 27.2406 21.956 2.1526
265 1 26.6477 18.5082 0.937624 4.35251
710 2 28.0081 20.1737 -0.100319 2.01879
711 2 26.8923 20.6132 3.11018 2.45512
266 1 29.9686 19.5959 2.22248 3.45001
277 1 29.6867 22.0815 1.71709 3.28652
337 1 32.8014 18.9506 0.978734 2.40825
782 2 32.5254 21.2282 0.0456873 2.00016
783 2 32.7332 20.5447 3.0946 1.47147
338 1 35.4012 20.1519 2.11821 1.44698
349 1 34.8915 23.1194 0.752512 1.15341
409 1 37.5043 18.5037 1.53901 1.96583
854 2 37.0447 21.5151 0.509666 1.19078
855 2 37.7972 21.617 3.88456 2.82868
410 1 39.5568 20.1491 2.19731 1.69211
421 1 39.3737 22.5558 0.238388 2.8245
62 1 18.7158 23.8652 2.08553 1.81131
134 1 23.006 24.1647 2.32409 2.40352
206 1 28.0321 23.0697 3.52101 2.42029
278 1 32.2412 23.4932 1.87394 1.57738
350 1 37.4495 24.3213 1.55583 2.33377
422 1 41.7149 23.1439 2.63645 5.59503
3 1 6.99152 3.69348 4.7902 1.31389
436 2 4.56166 1.66165 5.1302 3.14435
437 2 46.4999 26.7566 7.70818 1.80469
438 2 6.61787 2.97529 7.72666 2.08778
75 1 11.6746 2.99501 5.27913 1.35273
508 2 9.28295 2.38371 4.32912 1.0341
509 2 22.8383 26.3622 7.79362 2.66
510 2 10.3419 3.66143 8.5236 1.70451
147 1 15.8466 3.90996 4.69478 1.4473
580 2 13.9842 1.74211 4.13671 1.54859
581 2 13.3218 3.14915 7.17317 3.69885
582 2 15.8514 3.32579 8.09936 2.19394
219 1 20.7053 4.29607 5.31545 2.19092
652 2 19.1624 2.81949 4.25545 1.93359
653 2 18.6276 2.54312 7.11052 1.4855
654 2 20.4495 3.97604 7.86147 2.18241
291 1 25.2376 3.13937 5.01897 2.15202
724 2 22.3578 2.71859 3.89913 1.84364
725 2 23.2304 2.50383 6.00462 3.46407
726 2 25.9415 3.46508 7.54707 1.38403
796 2 28.5797 3.20491 4.41404 1.82477
797 2 27.7746 2.09458 7.07099 1.35994
363 1 30.9166 3.65708 5.59794 1.87289
798 2 30.2839 3.48184 8.76799 1.85575
448 2 6.25675 6.7274 4.81147 1.77717
449 2 7.34444 5.42142 6.7452 1.77775
4 1 9.43413 4.33885 5.81356 2.21879
15 1 9.7869 7.59029 4.92729 2.7563
450 2 9.14217 7.48804 7.84408 1.45755
520 2 11.8527 5.39855 4.16444 1.72179
521 2 11.398 5.83978 6.72616 1.30121
76 1 13.7134 5.09691 5.64182 2.01301
87 1 13.9579 7.66591 5.27147 1.07969
522 2 13.6586 8.10937 8.63865 3.188
592 2 15.8267 6.36218 3.48031 1.32871
593 2 16.0298 6.84117 5.9545 2.44901
148 1 18.4324 5.17521 5.65731 2.32404
159 1 17.7249 7.52778 4.34595 2.86966
594 2 17.8656 8.14875 7.05708 5.00983
664 2 19.7408 6.39385 4.33593 5.57608
665 2 20.8383 6.45668 7.33824 1.85353
220 1 22.9963 4.98598 6.0823 1.50393
231 1 22.3936 7.6703 5.01814 1.60929
666 2 23.9061 6.22549 8.96505 2.1548
736 2 25.7049 5.98964 4.44627 1.86938
737 2 25.4234 6.10434 6.91594 1.89363
292 1 28.0254 4.5028 6.71689 2.53606
303 1 27.4794 7.46589 5.03512 2.19817
738 2 28.0372 8.03337 8.17245 1.81911
364 1 32.9639 4.65579 6.61145 1.55123
375 1 32.2959 7.25695 5.04743 2.21066
808 2 29.972 6.95059 3.88972 2.50484
809 2 29.9305 6.52619 6.54571 1.40088
810 2 33.2197 6.93297 7.49061 5.03722
16 1 11.6012 9.31646 6.31746 1.68582
27 1 11.1507 11.6891 4.68727 1.76179
460 2 7.97084 9.32062 4.93094 3.08072
462 2 10.8116 12.3666 7.52728 1.05959
28 1 13.1492 13.0203 5.94076 2.38682
88 1 16.1737 9.53219 6.37067 2.3322
99 1 15.6164 11.4574 5.11015 1.69277
532 2 13.2408 10.4783 4.48852 1.31133
533 2 14.0414 10.5536 7.50091 2.29165
534 2 15.9891 12.0472 7.81496 1.29915
100 1 18.2444 13.1366 6.38577 2.30483
160 1 19.6617 9.11118 5.82692 1.95512
171 1 20.2962 12.0434 5.06112 1.09383
604 2 17.7896 10.7069 4.09141 1.7428
605 2 18.2419 10.9487 6.23568 9.16767
606 2 20.748 10.3714 8.25038 3.74628
172 1 22.7768 12.5811 6.2182 2.47672
232 1 25.0281 8.82559 4.35408 3.61098
243 1 24.7555 12.0594 5.21232 5.49396
676 2 22.8741 10.6135 4.45954 3.00403
677 2 22.3891 9.76053 6.58872 1.93368
678 2 25.0895 11.7985 8.36695 1.09758
244 1 27.9446 12.3646 6.36043 1.53892
748 2 27.5961 10.1094 3.88533 2.70442
749 2 26.361 10.3843 5.93185 2.59794
304 1 29.557 8.93942 5.7589 1.19924
315 1 30.1086 11.5225 5.49756 2.04853
316 1 33.4537 13.0138 6.55031 2.73102
750 2 29.5165 11.2944 8.53078 1.09423
820 2 32.092 9.68864 4.5713 1.43897
821 2 32.1918 9.55626 7.35454 1.29244
376 1 34.5373 8.54556 6.57864 2.22341
387 1 34.1349 10.9254 4.51152 2.37448
388 1 37.406 14.0548 6.35368 4.05344
461 2 36.7788 11.389 6.75761 2.01292
822 2 34.738 10.8801 7.8299 1.4287
472 2 11.4374 14.9067 3.68423 3.7852
39 1 13.7859 15.949 5.96302 5.67178
40 1 15.9101 17.3076 6.35545 1.60685
474 2 13.0428 16.6563 8.36623 3.11778
544 2 16.94 14.0756 3.81046 3.26769
545 2 15.3824 14.5683 6.85187 4.13944
111 1 17.9432 15.6066 5.58095 1.27848
112 1 20.4947 17.5671 6.11433 2.44002
546 2 17.7108 16.3114 8.67956 1.9794
616 2 20.5492 14.4622 4.18404 1.75049
617 2 20.012 14.6779 6.57189 5.93423
183 1 23.2896 15.268 5.71064 2.51092
184 1 25.691 16.9624 6.38558 2.70369
618 2 21.5864 15.8593 7.75217 2.03418
688 2 25.9557 13.6873 4.40862 6.07506
689 2 24.6983 14.1954 7.50861 1.65207
255 1 28.0105 15.2889 5.70228 2.99546
690 2 27.4594 15.3027 8.55166 1.69788
256 1 30.5889 15.638 6.48494 4.40184
327 1 33.3733 15.191 5.42955 2.92316
760 2 29.9932 14.1717 4.60882 6.66795
761 2 30.0621 13.7832 8.18432 4.79873
762 2 33.3674 14.9547 8.16051 2.21056
328 1 35.6462 17.2632 5.74207 2.91874
399 1 37.9213 16.0447 5.21425 1.4905
832 2 35.4088 14.7423 4.07754 2.64236
833 2 35.503 15.0226 7.25613 3.06718
834 2 37.578 15.9222 8.49236 2.6374
400 1 39.6854 17.353 6.45719 1.3566
473 2 11.4544 14.6198 7.05932 8.24111
51 1 15.8708 19.9158 5.19603 2.30897
484 2 13.5432 18.6872 5.8098 4.05337
486 2 15.5422 19.8599 9.37208 2.82806
496 2 16.3853 22.9198 5.15799 3.00436
52 1 18.0263 20.9431 6.04343 2.2703
123 1 20.357 20.1631 4.8919 3.65155
556 2 18.4569 18.8366 4.31599 1.5236
557 2 18.0063 18.5484 6.70507 2.65379
558 2 21.1822 19.4635 8.15545 2.74804
568 2 20.7143 22.8876 5.83862 4.13416
569 2 20.8199 22.6849 8.13991 2.30466
124 1 23.0138 21.1727 6.43342 2.39297
195 1 25.1365 20.1003 4.86832 1.86261
628 2 22.1171 18.9845 3.52579 4.86744
629 2 23.8093 18.2763 6.82328 1.51962
630 2 26.1052 19.957 7.96792 1.60896
640 2 25.84 22.7315 5.14507 2.11932
641 2 27.0946 21.529 6.62674 7.72672
196 1 28.6585 20.6765 5.30846 2.67322
700 2 28.3671 17.7946 4.69501 9.57441
701 2 27.9454 18.4723 6.77647 2.17524
267 1 30.7641 19.6091 4.993 2.58544
268 1 32.9354 20.6742 6.01662 1.61346
702 2 31.1285 19.224 7.52745 2.24812
712 2 30.5023 23.1695 4.75164 2.78819
713 2 29.3947 22.8629 7.18391 4.16087
772 2 33.3373 18.2121 4.74724 1.55634
773 2 33.2177 18.0839 7.1784 1.56681
339 1 35.4487 20.1114 5.29513 1.22864
340 1 37.5797 21.871 6.18309 1.40075
774 2 35.3332 20.2698 8.31577 1.2696
784 2 35.4937 23.073 3.54945 1.14803
785 2 34.9034 23.2445 6.52521 0.789304
844 2 37.4453 19.3482 3.81824 2.80854
845 2 37.5091 19.2666 7.36314 1.48306
411 1 39.6425 19.7709 4.92366 1.60608
412 1 41.5885 21.1848 6.95498 1.7785
485 2 41.2985 19.1232 8.32612 2.29015
846 2 38.6735 20.6829 8.75578 1.92921
856 2 40.2936 22.9061 4.94474 3.52647
857 2 39.7236 22.7641 6.87672 3.17087
497 2 16.0589 22.0808 7.15188 2.46895
63 1 18.7319 23.2832 4.93218 2.96602
64 1 21.0216 25.6525 6.05877 1.55749
498 2 18.5336 24.2319 7.93401 1.57991
135 1 23.1314 23.9624 4.76453 3.01672
136 1 25.1432 25.5435 6.58293 1.77591
570 2 23.6388 22.5799 8.31374 2.81131
207 1 27.8748 24.7034 6.15001 1.52664
642 2 27.6132 24.8385 8.53606 3.92437
208 1 30.9919 25.8839 5.8816 2.10056
279 1 32.7729 23.9108 4.59095 2.5747
714 2 32.0935 23.873 7.56861 1.40926
280 1 35.2833 25.6756 5.57777 1.70547
351 1 38.0892 24.4687 4.49196 1.11206
786 2 36.9316 24.4587 7.77307 1.02757
352 1 40.3696 25.2432 5.90685 2.14323
423 1 42.7626 24.2662 5.83031 1.32285
858 2 41.9382 23.65 8.17388 1.33167
424 1 44.9134 25.7838 6.00864 1.93538
439 2 48.6992 27.9103 11.2144 1.61519
511 2 25.0353 27.9579 11.3337 1.32708
583 2 29.7257 27.9936 10.7202 1.8456
655 2 20.1919 3.73807 11.0491 1.83347
727 2 25.7609 3.48363 10.3429 4.32557
799 2 43.0912 28.0475 11.0148 2.26404
5 1 8.05499 3.72276 9.58696 4.46122
6 1 11.5053 6.12793 9.12916 2.57104
7 1 10.8222 6.25508 12.2091 2.8362
440 2 8.38169 4.37177 12.6448 2.51317
451 2 8.51362 6.80604 10.1863 1.49572
77 1 14.1651 5.15798 8.16371 2.99332
78 1 15.291 6.63246 9.47617 3.71545
79 1 16.0291 5.86652 13.1056 2.11886
512 2 13.4564 5.40059 10.7524 2.2072
523 2 12.3122 7.96097 11.2472 1.78203
149 1 18.2096 4.80534 8.18341 2.05457
150 1 19.9336 6.06782 9.84448 1.54175
151 1 20.4796 5.55444 12.4711 1.38849
584 2 18.0317 5.01071 11.4709 1.31101
595 2 16.9746 7.40501 10.9663 1.88719
221 1 22.6707 4.0457 9.26797 6.208
222 1 26.464 6.45861 10.1864 2.7448
223 1 25.4986 6.3374 13.0842 1.70059
656 2 23.792 5.01463 11.047 2.21612
667 2 22.2927 7.74679 11.4904 3.36958
293 1 28.3749 5.15838 9.37809 2.85662
728 2 26.7897 4.24715 11.8523 5.57392
739 2 27.2095 8.34842 11.8057 2.1764
294 1 31.2441 6.46185 10.0931 2.99104
295 1 29.1897 6.46709 13.1027 1.63003
365 1 33.0572 4.19989 9.24386 1.80246
800 2 31.68 4.50432 11.9134 1.26183
811 2 32.8436 7.35135 12.3101 9.61441
366 1 33.9144 6.09578 10.3186 2.9798
367 1 34.4179 6.29075 13.1232 3.45483
17 1 11.3312 9.2976 8.76107 1.55049
452 2 10.047 8.69459 11.2179 3.38467
463 2 38.6991 11.8735 10.2145 2.90805
18 1 13.231 10.7943 9.64452 1.63207
19 1 12.4495 10.2041 12.3726 2.78216
29 1 13.3318 14.3679 7.98233 4.07113
89 1 15.6727 9.4857 9.40605 1.47934
464 2 13.862 13.3483 11.5686 2.18183
524 2 14.6049 9.0568 12.0725 2.2697
535 2 15.863 11.9759 10.688 1.29802
90 1 18.7344 9.84909 9.66777 2.42476
91 1 17.6804 10.1438 12.8414 1.70276
101 1 18.453 12.6583 8.96321 1.83596
161 1 21.4754 8.3178 8.64687 3.84445
536 2 17.6349 13.2586 11.7195 2.24766
596 2 19.7644 8.54246 11.4836 1.65521
607 2 19.9188 12.1586 11.5848 2.6074
162 1 23.2292 9.88616 9.79133 2.61329
163 1 22.8433 9.82089 12.2277 8.2735
173 1 22.6946 12.3097 9.34599 2.43375
233 1 25.0159 8.62557 7.72322 2.16714
608 2 22.6728 13.7267 12.0725 2.99651
668 2 24.8848 8.61222 11.4041 2.71062
679 2 25.0862 11.2858 11.4698 1.47319
234 1 26.9813 10.1745 9.22181 2.80571
235 1 27.5579 10.8338 13.5662 3.46234
245 1 27.3589 12.93 9.86789 1.7837
680 2 27.2388 13.6686 12.5333 1.47623
305 1 30.0878 8.53479 9.05372 2.3009
306 1 32.391 10.2308 10.5354 1.15126
307 1 32.4418 10.0807 13.1651 1.4695
317 1 31.8263 12.3569 9.04847 2.15329
740 2 30.5315 8.90131 11.6826 3.1357
751 2 30.3308 11.4225 11.5837 2.40012
752 2 32.509 12.4819 12.2179 1.74629
377 1 34.5522 8.48486 9.0384 2.64219
378 1 37.1038 9.69067 9.04526 1.22971
379 1 37.0952 10.1328 12.5357 1.6178
389 1 36.8743 13.2502 8.66671 1.38818
812 2 35.1724 10.0962 11.1719 2.98819
823 2 34.1278 12.7168 10.8011 2.09038
824 2 36.9712 12.4381 11.5405 2.13088
30 1 16.3302 14.2131 9.51417 2.43006
31 1 16.5306 14.7325 13.3925 3.99645
41 1 15.4682 17.0031 9.21571 1.54097
476 2 14.8167 16.8742 11.9055 2.49595
102 1 20.1858 14.3976 9.36937 3.2014
103 1 20.3336 14.5336 14.3063 5.85147
113 1 20.4412 17.0898 9.9665 3.45844
547 2 17.5172 16.1876 11.9047 3.10517
548 2 20.4707 17.6639 13.4947 2.48292
174 1 24.6157 14.1086 10.3473 1.95732
175 1 25.0045 14.3646 13.5888 2.49725
185 1 24.0139 16.8402 9.18809 2.25336
619 2 22.6195 15.8241 11.4434 4.37264
620 2 24.5966 18.0946 11.0278 4.38571
691 2 27.374 16.3816 10.9009 2.07302
246 1 29.8276 14.3517 10.4162 1.97163
247 1 30.2244 13.9179 12.9968 1.83111
257 1 29.7824 17.4869 9.68512 2.68029
692 2 29.3508 16.7553 12.2861 1.775
763 2 32.6184 15.2116 10.7147 1.59083
318 1 35.2113 15.2501 10.0211 2.32784
319 1 35.1007 14.3005 12.6583 1.24409
329 1 34.9808 17.6722 9.53921 1.70329
764 2 35.1304 17.3041 12.7125 1.1782
835 2 37.1216 15.8456 11.5839 1.24605
390 1 39.6894 13.8351 10.0009 2.37059
391 1 39.322 14.3595 12.6372 1.74474
401 1 38.8696 17.5826 9.51303 1.60664
475 2 41.2924 15.7572 10.2908 2.2676
836 2 39.4634 16.6394 12.2065 1.54585
42 1 17.623 18.8587 9.91494 2.43719
43 1 18.0328 19.0864 13.3211 2.18369
53 1 18.0256 21.5042 8.77454 1.62605
54 1 20.1347 22.6682 10.528 1.19844
55 1 21.0064 22.5164 13.2919 1.54493
488 2 17.4247 20.9803 11.5125 2.23153
559 2 20.2758 20.0279 11.8853 1.44818
114 1 22.0758 18.6303 10.6539 2.46736
115 1 22.9361 19.166 13.3311 1.16405
125 1 23.3875 20.1491 9.2526 2.17241
126 1 25.3974 22.7844 10.5469 2.61776
127 1 26.1673 22.3835 13.1044 2.86956
560 2 22.2559 21.5075 11.0178 2.94149
631 2 25.0939 20.066 11.3309 2.6049
186 1 27.3363 18.9128 9.96785 2.1911
187 1 27.3164 18.5853 13.09 1.19049
197 1 29.0136 20.3687 8.34015 2.68796
632 2 27.5815 21.6156 10.8826 1.57085
198 1 29.9176 22.8516 9.42769 1.74628
199 1 29.98 22.5105 12.32 3.23756
258 1 32.564 18.6873 10.0934 4.26184
259 1 32.6257 18.4893 12.8714 1.52465
269 1 32.59 21.0041 8.54242 2.18323
703 2 30.9946 19.9623 10.1811 7.13652
704 2 32.0103 21.6483 11.8249 4.15916
270 1 34.5054 22.9836 9.29039 2.87012
271 1 34.2638 22.2608 12.4143 4.87257
330 1 36.9541 19.1253 10.398 2.2603
331 1 37.3452 19.0362 12.6472 1.58483
341 1 36.9369 22.1783 8.99632 1.76063
775 2 34.2336 20.5264 11.4124 8.39022
776 2 37.3671 21.4752 12.0831 1.51755
342 1 39.478 23.1193 9.73572 1.37758
343 1 39.2071 22.8465 12.2871 1.48462
402 1 41.4231 18.6253 10.8057 1.54471
403 1 41.4375 18.4332 13.2643 2.04612
413 1 41.6859 21.1348 10.0955 1.59657
847 2 38.9483 19.8384 10.9984 4.24746
848 2 41.4077 21.7962 12.4777 2.47784
414 1 44.1075 22.958 9.56417 1.4013
415 1 44.1231 22.5163 13.2305 1.29577
487 2 43.2035 20.131 11.8334 2.89249
65 1 21.0645 25.1232 8.62898 3.6179
500 2 20.9808 24.9391 12.3795 1.76439
66 1 23.277 26.2109 10.861 2.02611
67 1 22.3479 26.8531 13.2704 1.96327
137 1 25.0565 25.5445 9.42789 3.26026
571 2 23.1962 23.5053 11.4988 2.43379
572 2 26.1395 25.2919 12.9431 2.76211
138 1 27.2035 27.6079 9.90182 2.64437
139 1 27.6862 28.2258 12.9471 3.86804
643 2 27.8705 24.0388 12.017 2.09478
209 1 30.0343 25.1443 8.5786 2.25908
210 1 32.4152 26.9272 9.87044 1.28585
211 1 32.4229 26.5511 12.902 1.73795
644 2 29.6962 25.7613 12.8598 2.19476
715 2 31.8116 24.3842 11.0507 1.3695
281 1 34.8364 25.6865 8.72527 1.92435
282 1 36.6442 26.4368 10.2433 3.16483
283 1 36.4838 27.6762 12.403 3.01852
716 2 34.9403 25.9493 12.0887 3.25879
787 2 37.153 23.7315 10.852 2.25244
353 1 39.0788 26.1279 8.70539 2.28348
354 1 41.9116 25.9678 9.68513 1.47276
355 1 41.8395 26.4552 12.8729 1.21593
788 2 39.3102 25.0981 11.0755 3.44803
859 2 42.0966 23.4137 11.0714 2.91365
425 1 44.7255 25.2805 8.62834 1.5052
426 1 46.4589 26.471 10.3642 1.68553
427 1 46.3771 25.8817 12.7334 3.02734
499 2 45.9659 23.7966 11.4111 1.18435
860 2 43.7243 24.6317 11.9853 1.54004
441 2 37.1304 5.34808 14.8545 1.44402
442 2 11.2538 5.86433 15.8273 1.58501
8 1 14.0097 7.24883 13.8193 2.47227
9 1 13.6527 7.23517 16.7607 1.51308
513 2 27.8149 29.366 14.9003 2.94073
514 2 15.747 5.76647 15.7087 1.64856
80 1 18.7473 7.26222 13.8708 1.05099
81 1 18.0646 7.36908 16.587 1.84089
585 2 33.1013 29.0564 14.5681 1.39333
586 2 21.2619 6.53238 14.7784 2.1997
152 1 23.2211 7.54763 13.8979 3.16864
153 1 23.2086 7.81986 16.2557 2.59716
657 2 36.8251 29.228 14.934 2.23988
658 2 25.7217 7.07658 17.0022 5.93703
224 1 27.6492 8.27123 14.8762 1.63977
225 1 27.4525 8.14334 17.9327 2.58845
729 2 27.2883 5.26712 14.8215 1.11461
296 1 31.5371 7.85566 14.2286 4.30806
297 1 32.0251 6.91628 16.8578 1.9771
730 2 29.8571 7.57652 15.6897 13.1175
801 2 31.814 5.23355 14.4432 1.07629
368 1 37.1399 7.60332 12.9169 2.29722
369 1 37.074 7.01938 16.6375 1.74901
802 2 34.3301 5.9765 15.6051 1.42882
453 2 11.3904 8.60985 13.7163 2.60571
10 1 15.7016 8.42705 17.9096 1.69898
20 1 15.7304 11.7675 13.9862 1.81194
21 1 15.5239 11.1262 16.5794 3.31069
454 2 12.9835 10.1574 15.6751 1.71592
525 2 16.3126 8.41211 14.8823 0.984749
22 1 18.3789 13.0794 18.2442 1.42038
82 1 20.202 8.70816 17.6591 1.09588
92 1 20.6135 12.0135 14.4908 5.37963
93 1 19.9651 11.2274 17.025 2.46786
526 2 18.8751 10.4658 15.1586 8.25532
537 2 18.2901 13.1279 14.7955 2.24308
597 2 21.0024 9.45259 15.1642 2.6286
94 1 22.6059 12.8927 18.1154 1.84749
154 1 25.0979 9.34578 16.6041 3.84185
164 1 25.2306 11.9643 14.1526 2.04833
165 1 25.005 12.0395 16.6598 2.85295
598 2 22.2391 10.7787 16.7396 3.0906
609 2 23.2076 12.8005 15.1257 5.01684
669 2 25.3397 9.20679 13.7475 2.00877
166 1 27.5127 13.037 18.3566 2.2238
670 2 27.382 10.4577 16.6633 1.29272
681 2 27.4793 13.5097 15.6077 0.819514
226 1 30.1955 9.13315 18.0868 1.73733
236 1 29.6589 12.1647 14.55 1.6536
237 1 29.7969 12.2296 17.0028 1.54408
238 1 33.0447 12.8146 17.7386 1.77683
741 2 30.2305 9.51722 15.3972 9.63009
742 2 32.2824 9.83401 15.8049 5.07245
753 2 33.0917 13.0843 14.8258 1.22214
298 1 35.137 8.84898 17.6001 1.75176
308 1 34.7121 11.9185 13.3928 1.62479
309 1 34.6551 11.0431 16.3525 1.9166
310 1 37.3426 13.6773 17.8117 1.83118
813 2 35.1692 9.06163 14.6127 1.26428
814 2 38.1719 9.23007 15.4911 2.65166
825 2 37.3918 11.7867 14.9427 5.03571
370 1 39.986 9.04859 17.3546 2.016
380 1 39.2754 11.4798 13.9697 3.64822
381 1 39.5747 11.6084 16.6318 2.67061
382 1 41.5119 13.0183 17.9214 1.50563
465 2 13.6799 12.7432 15.0071 1.28409
466 2 16.1007 13.7679 15.6907 2.86362
32 1 18.2447 16.2007 14.5916 2.36021
33 1 18.6476 15.413 16.9131 2.25286
34 1 20.3357 17.6579 18.6114 1.94942
538 2 20.7535 13.6692 16.8919 2.46341
549 2 21.2718 17.039 15.843 1.18923
104 1 23.6658 16.2897 15.637 4.15512
105 1 22.823 16.1762 18.1634 1.53057
106 1 25.7832 17.0712 18.0599 1.60863
610 2 24.9943 14.7235 16.284 3.47143
621 2 24.6675 17.2449 13.578 2.52372
176 1 27.1756 15.5909 14.1709 1.96081
177 1 28.1265 15.7264 17.2659 2.51068
178 1 30.0687 17.063 17.5648 1.92957
248 1 32.3649 15.5373 13.2101 1.21686
249 1 32.736 15.8753 16.4806 3.37208
682 2 30.5855 14.6214 15.4304 2.07473
693 2 30.2727 17.4493 14.6516 1.84312
250 1 34.9463 17.3022 17.9033 0.991445
320 1 37.1547 16.2405 14.0592 2.31397
321 1 37.5517 15.8861 17.2132 2.13938
754 2 35.4634 14.8936 15.9685 1.36451
765 2 34.2653 17.3028 14.9988 3.58059
322 1 39.7319 17.7276 18.0675 2.09826
392 1 41.9618 15.497 14.3169 1.65567
393 1 42.5503 15.4469 16.708 5.96326
826 2 39.5419 15.2005 15.5536 1.65533
837 2 38.8798 17.5751 15.4856 2.18052
394 1 44.4139 17.6973 17.3532 1.61032
477 2 43.8345 17.6631 15.1167 1.69556
44 1 20.6154 19.6536 14.9128 1.88071
45 1 20.973 19.9229 17.4752 1.55971
478 2 18.0753 18.4265 15.8723 1.86664
490 2 21.1605 21.9712 16.1968 1.47505
46 1 23.4449 21.0334 17.9848 1.48282
116 1 25.2826 19.9423 14.3289 2.21999
117 1 26.1162 19.4133 17.4154 2.23319
550 2 23.4808 19.1911 15.7635 2.68252
561 2 23.3341 21.2672 14.0673 6.35345
562 2 25.0395 21.0918 16.286 7.83882
118 1 28.4871 20.5434 17.9029 2.02992
622 2 27.5564 18.0479 15.8281 1.43401
633 2 28.2029 20.2403 15.4659 2.89457
188 1 29.5887 20.1213 13.1765 2.57194
189 1 30.5795 19.6034 16.6687 1.73683
190 1 32.4357 21.1787 17.3215 2.16439
634 2 30.0434 22.3039 17.0167 3.75347
694 2 32.4546 17.809 15.7341 11.9553
705 2 31.7051 21.1175 13.9558 2.57865
260 1 34.4886 19.6965 13.7971 1.53836
261 1 34.2422 19.9086 16.5499 3.26717
262 1 37.1634 21.7314 17.366 4.19232
706 2 34.2776 22.2205 15.2219 1.25886
766 2 36.7454 18.5031 16.0608 1.47446
777 2 36.6748 21.414 14.4092 1.21131
332 1 39.5432 20.558 13.6717 2.28953
333 1 39.3363 19.8947 16.8877 1.60927
334 1 41.6073 21.4384 17.6853 1.5887
778 2 38.4464 22.9489 15.4415 10.0068
838 2 41.6228 18.7975 16.1419 1.32456
849 2 41.732 22.0475 14.7245 2.02754
404 1 43.9912 20.2843 14.3074 2.31019
405 1 44.8025 20.1877 16.8011 3.1636
406 1 47.2846 21.4709 18.0295 2.69313
489 2 18.7188 21.7345 13.0622 4.49881
850 2 43.668 23.2562 15.9475 1.30776
56 1 22.5926 24.0966 14.4099 1.85082
57 1 23.3408 23.7892 17.3021 1.56132
58 1 25.4609 25.6756 18.5477 2.05558
502 2 22.4409 26.255 16.3191 0.98562
573 2 24.8035 25.3097 15.781 2.9
128 1 28.1127 23.5421 14.973 3.25308
129 1 27.6228 24.2853 17.2768 2.72856
574 2 27.8775 26.6078 14.8416 1.84955
130 1 30.2916 25.4675 17.4539 1.93835
200 1 32.1691 23.6376 13.7536 1.84947
201 1 32.7072 24.1606 16.723 1.26627
645 2 31.1156 25.9117 15.0995 3.36419
646 2 32.8549 27.2641 16.5789 1.38844
202 1 35.088 24.9098 17.4742 2.43738
272 1 36.5695 23.7687 13.4852 1.87012
273 1 36.7812 24.1492 15.89 3.96007
717 2 33.7725 25.3567 14.6781 4.04682
718 2 37.1934 26.666 16.0293 45.2128
274 1 39.0209 25.2801 16.8247 3.50268
344 1 41.3019 24.1692 13.6595 2.13711
345 1 40.7448 23.8286 16.4789 2.15585
789 2 39.1721 24.8402 14.7485 13.7692
790 2 41.7488 27.5765 15.8424 2.43137
346 1 44.2588 25.2898 17.5375 1.77825
416 1 46.6958 23.977 14.1824 1.72264
417 1 46.42 23.9158 16.8843 2.09907
861 2 44.0443 25.9433 14.7122 1.06585
862 2 46.2389 26.9953 15.4309 1.20074
418 1 49.1615 24.2283 18.0934 1.54253
501 2 48.6837 25.1143 15.1801 0.989936
68 1 25.1901 27.1674 14.1606 2.07248
69 1 25.3481 27.5251 16.9092 2.98501
70 1 27.8589 29.0241 17.7104 2.65123
140 1 30.2498 27.9535 14.2133 1.46288
141 1 30.2427 27.804 17.1307 1.58175
142 1 32.3025 29.2761 18.0629 3.38908
212 1 34.9603 27.3146 14.4344 1.61604
213 1 35.1041 28.8464 16.797 1.5124
214 1 37.2412 29.9128 17.7916 0.963596
284 1 39.3601 27.9659 13.2856 2.12092
285 1 39.0915 28.2675 16.0307 1.61317
286 1 41.9545 29.0906 17.7106 2.72914
356 1 43.6873 28.1957 13.4586 1.67361
357 1 44.094 28.2499 16.1298 1.34122
358 1 46.8328 29.018 17.5139 1.64462
428 1 48.5705 28.5323 13.8872 1.29758
429 1 48.63 27.7687 16.412 3.21725
430 1 51.8408 29.226 17.8919 2.21604
443 2 39.3292 6.97619 18.2875 2.02234
444 2 13.2836 8.70032 20.3605 2.72615
515 2 29.5555 30.2253 18.0339 5.99159
516 2 18.2246 6.53573 19.1599 2.91233
587 2 20.5939 6.28682 18.0238 2.69781
588 2 22.5766 7.70397 19.8418 4.76593
659 2 39.1519 31.0108 19.3894 2.51914
660 2 28.2659 7.56592 20.3111 1.83199
721 2 18.5538 0.0694216 -0.414672 1.51745
731 2 29.5941 6.14204 18.1669 1.74849
732 2 33.2057 7.05301 19.7091 3.22604
793 2 37.2554 7.83764 22.3701 1.44451
803 2 49.2234 30.2383 18.0921 1.90372
804 2 37.151 7.2289 19.825 1.18913
11 1 15.7724 8.9303 20.7709 2.63648
455 2 13.6916 10.5437 18.6888 0.774565
456 2 15.9627 13.0989 19.615 3.50527
12 1 18.4493 10.5971 21.5319 2.20928
23 1 18.4762 13.1012 20.9022 2.85276
83 1 20.0916 8.75098 20.4891 1.6277
527 2 17.8213 10.1721 18.7853 1.05328
528 2 20.7712 11.4637 19.0725 3.62605
84 1 23.2259 9.47878 21.471 2.50952
95 1 22.8634 11.9965 20.6544 2.66066
155 1 25.5623 9.02091 20.1289 2.29449
599 2 22.1015 9.22109 18.6697 7.8866
600 2 26.2249 11.2289 21.4562 3.83673
156 1 28.3014 9.88507 21.7685 1.48975
167 1 27.8208 13.2829 21.0951 2.63105
671 2 27.71 9.92599 19.6087 3.7192
227 1 30.4612 9.04327 21.2254 1.79127
228 1 32.5416 10.7723 21.652 2.72427
239 1 32.6971 12.9437 20.2874 3.05304
672 2 29.7151 11.5957 19.7574 1.05854
743 2 32.3627 10.5574 19.4078 2.96843
299 1 34.8458 9.47334 20.3237 2.24158
300 1 37.4434 10.4801 21.4971 1.75168
311 1 37.4273 13.7863 20.6723 4.35085
733 2 20.9376 4.49512 -0.215539 3.14268
744 2 35.7544 11.7192 18.8964 1.66099
815 2 38.0621 10.3252 17.9803 4.70082
371 1 39.2686 9.11004 20.0593 1.70456
372 1 41.988 10.8728 22.1979 1.63402
383 1 42.0887 13.3704 20.5768 1.82628
805 2 25.3377 3.82239 -0.355475 1.51151
816 2 39.3844 11.5377 20.3931 2.19321
24 1 20.5235 13.7277 22.0807 1.3992
35 1 20.4826 16.3616 21.3885 1.66698
468 2 17.5842 15.3786 19.3717 3.20035
539 2 20.2945 14.5342 19.3759 1.16648
96 1 25.5769 14.5297 22.2248 1.27139
107 1 25.4869 16.9299 20.7639 1.23475
540 2 22.8606 14.8548 20.6481 2.40316
611 2 24.5181 14.3122 19.4078 2.47707
612 2 27.4754 15.3339 19.8021 2.29942
168 1 29.6936 14.5075 21.1948 2.45773
179 1 29.2799 17.1128 20.7484 2.86929
683 2 30.2259 14.5436 17.7515 2.42202
684 2 32.0453 15.5083 20.1242 2.39836
240 1 20.2539 7.27956 -0.365022 3.85796
251 1 34.0117 17.6197 20.4951 1.92337
745 2 37.9134 15.3722 22.2277 1.98668
755 2 34.9818 14.8775 18.3975 2.34498
756 2 36.1069 16.3449 20.0959 2.54336
312 1 40.5604 14.9087 22.1162 3.19959
323 1 39.557 17.5879 20.772 1.44353
817 2 42.2661 16.383 22.2516 3.83001
827 2 39.4383 15.1056 18.6806 2.48814
828 2 42.7732 15.2076 19.2862 4.19351
384 1 44.6483 14.8956 21.5786 2.5822
395 1 44.2604 17.1022 20.4603 2.41125
467 2 15.7992 14.7315 17.6727 12.2846
480 2 20.2628 20.0726 20.2399 2.25287
36 1 22.7684 18.2078 21.9501 1.64442
47 1 23.0883 20.7456 20.7406 1.41059
48 1 25.7818 21.5976 21.7255 1.38133
551 2 22.5379 18.5461 18.6504 3.7611
552 2 24.6831 19.1771 20.3095 3.90781
563 2 25.1069 22.6498 19.106 2.15973
108 1 26.6519 19.1803 21.8515 3.19772
119 1 28.297 21.6356 20.3161 1.73616
623 2 27.9549 18.2168 19.3315 2.80951
120 1 30.0466 23.1272 21.9487 1.76238
180 1 31.543 18.7807 21.601 1.72221
191 1 32.4649 21.1513 20.609 5.49503
624 2 30.526 20.7039 20.1033 9.80106
635 2 29.7992 23.7163 19.1703 3.48182
695 2 32.2094 18.378 18.1521 2.13318
192 1 34.6354 21.7693 21.2953 1.67165
252 1 37.2365 17.8752 21.7694 1.92678
263 1 37.3019 20.755 21.2034 1.62833
696 2 34.352 20.0106 18.9304 2.52638
707 2 33.3786 22.8441 19.4155 5.76893
767 2 37.5112 18.6225 19.1893 1.30497
264 1 39.1147 22.9738 20.7258 4.51305
324 1 42.2111 18.5746 21.5577 3.04909
335 1 42.1682 21.3111 20.1608 2.69069
757 2 40.0364 19.6965 22.5739 2.43991
768 2 39.4546 20.8941 19.2251 2.17343
779 2 38.7441 23.1055 17.8169 5.718
839 2 41.6267 19.1475 18.8081 1.86843
336 1 44.3099 23.0409 21.6474 2.68448
396 1 46.5062 18.9509 22.1914 4.35741
407 1 46.6052 21.9899 20.6024 1.67697
479 2 46.3705 19.3507 18.9361 2.02519
829 2 44.19 20.3895 22.4607 2.07867
840 2 43.9728 19.2725 19.4484 2.40284
851 2 44.0529 23.23 18.9173 2.35057
408 1 49.3424 22.7418 21.9096 15.3571
491 2 21.1762 21.8788 19.3426 2.04455
59 1 24.7013 24.3029 20.9528 2.35246
492 2 22.4537 23.399 20.8802 24.7906
503 2 50.8607 25.9548 19.2832 1.96273
60 1 28.2836 26.2312 21.9785 1.98837
564 2 27.4969 23.9545 20.5891 4.9346
575 2 27.8804 26.6934 19.3081 1.34752
131 1 30.3232 25.2092 20.9986 1.6644
132 1 32.5889 26.4555 21.7274 1.90441
636 2 32.3474 24.8266 19.378 3.27649
647 2 33.6197 26.6217 19.0344 2.09243
203 1 34.4276 24.7032 20.9421 2.30621
204 1 36.6802 25.5429 21.6141 3.74351
708 2 36.4225 22.8255 19.6132 1.4311
719 2 36.8359 26.4806 17.6703 57.924
275 1 39.5322 25.9026 19.9522 2.90707
276 1 41.4044 27.1234 20.6971 2.11593
769 2 28.3075 15.6456 0.35491 7.51188
780 2 41.9019 23.8414 19.4021 1.89106
791 2 41.9049 26.1353 18.0608 1.54288
347 1 44.1292 25.5964 20.1474 3.01744
348 1 46.2441 25.8992 21.6009 2.19501
841 2 46.9306 23.4806 22.6788 1.29023
852 2 47.6758 23.868 19.9906 2.70443
863 2 46.7324 26.459 18.8147 0.99845
419 1 48.8494 26.125 20.7105 1.05765
420 1 51.334 26.1887 21.9532 1.69507
504 2 24.6855 28.0065 20.2275 1.87042
71 1 27.9082 29.3259 20.6243 2.02002
72 1 30.0376 30.8817 21.6699 1.86653
143 1 32.994 28.7347 21.074 2.72846
576 2 29.8953 27.7938 20.0109 0.986586
144 1 34.5574 31.0202 21.9681 1.14856
215 1 37.0577 30.0552 20.7232 3.24615
648 2 35.647 28.241 19.0468 3.63383
216 1 40.1357 31.2183 21.5598 3.69534
287 1 43.1242 29.7916 20.6609 2.74067
720 2 39.3519 28.3336 19.0332 1.53938
288 1 30.4722 22.8609 -0.490416 1.83093
359 1 45.2982 29.5424 19.9583 3.23179
781 2 44.7186 27.9087 22.409 1.68733
792 2 43.8637 27.5526 18.4869 2.07656
360 1 48.832 30.7129 21.311 1.97965
431 1 51.2188 29.5773 20.9585 2.21163
853 2 49.0012 28.3527 22.5224 1.15147
864 2 48.4173 28.7957 19.6148 1.83078
432 1 53.8237 30.8409 20.7744 1.75642
