ITEM: TIMESTEP
25
ITEM: NUMBER OF ATOMS
864
ITEM: BOX BOUNDS xy xz yz pp pp pp
-2.0169691700080134e-04 5.3910944618847807e+01 1.3477826322500459e+01
-3.1622282950000981e-04 3.1125487345799286e+01 1.3477994239772357e+01
-4.3524162118699394e-04 2.2009037187454233e+01 7.7815236024687966e+00
ITEM: ATOMS id type x y z f_grace_gamma
433 2 0.0101084 0.103252 -0.176297 1.32467
434 2 2.2023 1.23004 0.655872 1.63609
435 2 2.11153 1.49113 3.42759 1.52681
445 2 2.23514 3.86094 -0.0101756 1.14201
1 1 4.51554 2.70588 1.75417 0.369272
2 1 6.68696 3.94649 2.69976 0.40141
505 2 4.49661 0.265331 0.215609 2.03028
506 2 6.55922 1.32173 0.980821 1.60924
507 2 6.77203 1.09718 3.57979 1.65664
517 2 6.65661 3.85547 -0.0836463 2.00879
73 1 8.9076 2.53511 1.98997 0.4291
74 1 11.2487 3.89198 2.87076 0.461576
577 2 9.0255 -0.0120278 0.0995325 1.35059
578 2 11.2045 1.54252 0.623576 2.0308
579 2 11.3537 1.33727 3.39247 1.79381
589 2 11.2159 3.82172 -0.0290696 1.84553
145 1 13.5095 2.56418 1.81363 0.612364
146 1 15.7723 3.81591 2.87986 0.510567
649 2 13.5059 -0.112176 0.0343947 1.2895
650 2 15.8679 1.33098 0.689093 1.56262
651 2 15.6401 1.31394 3.37323 1.7927
661 2 15.8065 3.78197 0.171201 1.18829
217 1 18.0514 2.52772 1.955 1.05838
218 1 20.3632 3.89437 2.75269 0.364746
722 2 20.1304 1.31044 0.929145 1.10701
723 2 20.187 1.41239 3.85296 2.27591
289 1 22.4437 2.53831 1.85703 0.425207
290 1 24.6585 3.97798 2.64516 0.312835
794 2 24.7538 1.34067 1.00747 1.02831
795 2 24.513 1.25369 3.58941 1.81622
361 1 26.8925 2.70518 1.77488 0.871232
362 1 29.2239 3.86812 2.70427 1.15942
13 1 6.73446 6.44796 1.87403 0.376713
446 2 4.53855 5.1319 1.06019 1.36493
447 2 4.64999 5.25469 3.74761 1.23068
457 2 4.61684 7.62148 -0.084844 2.52415
14 1 8.88288 7.76073 2.79495 0.358268
85 1 11.1079 6.2992 1.84336 1.03123
518 2 8.80978 5.01555 0.937901 2.29467
519 2 8.85274 5.06964 3.72968 1.01203
529 2 9.00767 7.59404 0.0583248 1.28073
86 1 13.5809 7.92923 2.74791 1.57321
157 1 15.8075 6.34077 1.73601 0.852514
590 2 13.3105 5.02718 0.759532 2.10033
591 2 13.6149 4.99686 3.64917 1.44886
601 2 13.3984 7.86625 0.192668 1.45646
158 1 18.053 7.80544 2.63958 0.347601
229 1 20.3622 6.46301 1.80838 0.955744
662 2 18.0959 5.16818 0.94631 1.62869
663 2 17.9588 5.20974 3.60714 1.39505
673 2 18.196 8.1568 -0.291722 3.74615
230 1 22.5665 7.88266 2.85747 1.1348
301 1 24.8541 6.53522 1.73218 1.14585
734 2 22.5138 5.01402 0.939491 1.36392
735 2 22.3884 5.2862 3.71773 1.15315
302 1 26.8462 7.80095 2.92028 1.48218
806 2 27.0484 5.26126 0.863329 0.974724
807 2 26.9313 5.12626 3.55488 1.93921
373 1 29.243 6.61838 1.80589 0.379467
374 1 31.3815 7.76706 2.81916 1.12805
458 2 6.8791 9.10076 0.669873 1.84362
25 1 8.97895 10.3686 1.80653 0.820345
26 1 11.4048 11.6227 2.77317 0.96036
470 2 8.85922 13.1171 0.999413 1.41639
471 2 9.15714 13.0336 3.6723 1.11232
530 2 10.9789 8.87492 1.17629 1.97252
531 2 10.8968 9.19222 3.75294 2.34503
541 2 11.3686 11.6822 -0.0418704 1.82074
97 1 13.4602 10.3025 1.73942 0.554285
98 1 15.7074 11.5543 2.90241 1.4845
542 2 13.6419 12.6616 0.805917 2.14448
543 2 13.3341 13.0211 3.62967 1.8638
602 2 15.802 8.86507 0.647229 1.93895
603 2 15.7194 9.21094 3.38372 2.84616
613 2 15.6581 11.379 -0.000348047 2.36017
169 1 18.0452 10.2215 1.87645 0.56133
170 1 20.1495 11.7365 2.63964 0.404741
614 2 17.9809 12.7959 1.25272 1.81555
615 2 17.8476 12.8862 3.68114 1.58887
674 2 20.2197 9.3376 0.870299 1.95732
675 2 19.9896 9.16125 3.85997 2.15591
685 2 20.3064 11.7364 0.0936463 1.70137
241 1 22.3249 10.4945 1.86328 0.383473
242 1 24.6221 11.6156 2.82184 1.20233
686 2 22.5942 13.0063 0.8841 2.13389
687 2 22.5936 12.8938 3.52557 1.55513
746 2 24.8422 9.18806 1.01854 2.47086
747 2 24.8479 9.13596 3.86145 1.81076
313 1 27.0133 10.4065 1.83011 0.420842
758 2 27.1996 12.9325 0.728088 1.99265
759 2 26.932 13.2007 3.61495 1.84241
314 1 29.2155 11.6902 2.7965 0.87762
385 1 31.5968 10.2116 1.89355 1.23493
818 2 29.3937 9.46885 0.839778 2.6959
819 2 28.9954 8.97275 3.67966 1.65266
830 2 31.3503 13.2621 0.791887 2.37254
831 2 31.4597 12.9186 3.57261 1.07359
386 1 33.6611 11.667 2.83105 0.511217
459 2 33.5193 9.25855 3.59723 1.96018
469 2 33.7752 11.719 0.179946 1.09086
37 1 11.3024 14.2647 1.83869 0.45467
482 2 11.2448 16.6904 0.81513 1.29763
38 1 13.5241 15.6391 2.85879 0.440736
109 1 15.7185 14.4206 1.73997 1.50593
553 2 13.4606 15.3664 0.00492186 1.83767
554 2 15.5144 16.819 0.944773 1.89615
555 2 15.9905 16.954 3.63026 1.90674
110 1 18.0534 15.5679 2.81777 0.395894
181 1 20.3073 14.361 1.78313 0.371389
625 2 17.8482 15.582 -0.00603556 1.11146
626 2 19.9397 16.9795 0.747599 2.14643
627 2 20.342 16.7314 3.48435 1.44382
182 1 22.5106 15.5257 2.79041 0.381132
253 1 24.6792 14.2624 1.82861 0.344047
697 2 22.3815 15.63 0.316347 2.00878
698 2 24.7715 17.0206 1.22094 1.93152
699 2 24.8094 16.731 3.84805 1.50545
254 1 26.9699 15.5902 2.62478 0.669579
325 1 29.1297 14.223 1.96174 0.432561
326 1 31.4308 15.561 2.72578 0.38862
770 2 29.1278 16.9517 0.832263 1.85375
771 2 29.2676 16.7601 3.63155 1.38323
397 1 33.6846 14.2492 1.84788 0.526887
398 1 35.9772 15.488 2.7337 0.950748
481 2 35.9084 15.449 -0.0144999 2.70435
842 2 33.6873 16.8225 0.742045 1.39521
843 2 33.5114 16.8426 3.38187 2.09158
483 2 38.4126 16.818 3.68747 1.69335
493 2 11.2914 19.4562 0.147899 1.34467
49 1 13.4105 18.2317 1.88163 1.0205
50 1 15.7567 19.4521 2.84064 0.962898
61 1 15.8895 22.0804 1.78454 0.905122
494 2 13.331 20.4548 0.84988 2.48068
495 2 13.4828 20.8353 3.82186 1.44483
565 2 15.7364 19.4705 0.0395002 2.30751
121 1 17.9412 18.0864 1.83877 0.797801
122 1 20.1879 19.5466 2.71122 0.306786
133 1 20.2712 22.0157 1.87091 0.691364
566 2 17.9914 20.7932 0.782884 1.4194
567 2 18.0692 20.7733 3.80045 1.43629
637 2 20.0541 19.3861 -0.191114 1.43747
193 1 22.4764 18.2054 1.86772 0.360593
194 1 24.8301 19.3675 2.74665 1.25144
205 1 24.7964 22.1755 1.86333 0.374365
638 2 22.606 20.8046 1.04628 1.79447
639 2 22.3803 20.5303 3.83597 2.07595
709 2 24.7769 19.2333 -0.113982 1.636
265 1 27.0724 18.1992 1.77217 0.515326
710 2 26.9532 20.6134 0.935149 1.19081
711 2 26.9705 20.7659 3.68544 1.22528
266 1 29.3179 19.4915 2.75837 0.331209
277 1 29.2456 22.1687 1.78135 0.831372
337 1 31.5042 18.2564 1.74826 0.930018
782 2 31.3795 20.7881 0.988087 1.63671
783 2 31.3868 20.497 3.69457 1.38354
338 1 33.8287 19.4984 2.6906 0.362007
349 1 33.7167 22.0183 1.75217 0.943828
409 1 35.8682 18.2392 1.70372 0.309154
854 2 36.0754 20.8148 1.01222 1.7355
855 2 36.0676 20.8386 3.54889 1.3109
410 1 38.0987 19.5458 2.74917 0.395749
421 1 38.1628 22.0816 1.81234 0.30224
62 1 18.0118 23.3323 2.90385 0.427356
134 1 22.6496 23.3366 2.61206 0.347608
206 1 26.9514 23.2928 2.69307 0.468318
278 1 31.4575 23.3287 2.73715 1.21761
350 1 36.0316 23.4132 2.70241 0.410232
422 1 40.4793 23.3263 2.65608 0.908943
3 1 6.72154 3.87812 5.45039 0.948621
436 2 4.49065 2.37517 4.49172 1.64352
437 2 4.72036 2.85758 7.23006 2.19687
438 2 6.91691 4.26491 8.32961 2.42764
75 1 11.1631 3.89377 5.73529 0.383966
508 2 9.18742 2.6102 4.46681 1.30935
509 2 8.94517 2.40771 7.21965 1.63187
510 2 11.2728 3.94746 8.45212 1.63438
147 1 15.6012 3.91475 5.48512 0.399352
580 2 13.3263 2.31849 4.53718 1.59676
581 2 13.4594 2.67143 7.25864 1.4625
582 2 15.6818 3.88899 8.43827 1.62584
219 1 20.1239 3.86379 5.45808 0.378013
652 2 17.6617 2.54315 4.59915 1.88864
653 2 17.825 2.76695 7.27172 1.82869
654 2 20.0303 3.84221 8.11425 1.97512
291 1 24.6783 3.71984 5.42662 0.360452
724 2 22.5641 2.56637 4.54436 1.1801
725 2 22.4023 2.63637 7.20591 1.36047
726 2 24.8196 3.97609 8.14104 2.05385
796 2 26.7819 2.41741 4.60159 1.4052
797 2 27.0734 2.48076 7.1262 1.92035
363 1 29.2542 3.8208 5.54853 0.369637
798 2 29.2163 3.62626 8.30507 1.85834
448 2 6.81915 6.61833 4.4945 1.12952
449 2 6.7297 6.68801 7.24016 1.79538
4 1 8.92603 5.1689 6.47333 0.855569
15 1 8.94313 7.94902 5.44467 0.320298
450 2 9.22459 7.9212 8.26398 1.6677
520 2 11.4268 6.29982 4.26681 2.5892
521 2 11.1463 6.63807 7.03116 2.12498
76 1 13.4009 5.20509 6.41509 1.20048
87 1 13.4571 7.75887 5.6684 1.10671
522 2 13.4996 7.94262 8.39922 1.808
592 2 15.874 6.76631 4.38365 2.18676
593 2 15.7357 6.36786 7.35764 1.43068
148 1 18.0243 5.19044 6.41393 0.378919
159 1 18.0423 7.76153 5.51908 0.77114
594 2 18.1029 7.69343 8.51488 1.99126
664 2 20.2241 6.43464 4.4458 1.1152
665 2 20.1626 6.23048 7.36452 1.7916
220 1 22.5397 5.18662 6.34212 0.888282
231 1 22.5081 7.83552 5.38807 0.320465
666 2 22.6535 7.58679 8.13364 1.71108
736 2 24.7475 6.42875 4.59381 1.17108
737 2 24.6591 6.65886 7.23635 1.82525
292 1 26.9172 5.27853 6.53099 1.06142
303 1 26.9715 7.79181 5.59637 0.636983
738 2 26.9974 7.80411 8.27848 1.26503
364 1 31.3972 5.04696 6.4188 0.620465
375 1 31.4716 7.74325 5.64914 1.00424
808 2 29.376 6.50149 4.6247 1.83958
809 2 29.1065 6.2371 7.27324 2.10035
810 2 31.545 7.89922 8.27315 2.0739
16 1 11.2297 9.08503 6.33763 0.404656
27 1 11.2135 11.6844 5.57554 0.359834
460 2 8.87138 10.3171 4.65296 1.76097
462 2 11.213 11.6599 8.4095 1.47521
28 1 13.575 12.9785 6.46618 0.475576
88 1 15.7603 8.96008 6.3207 0.466571
99 1 15.7247 11.5451 5.55928 0.439143
532 2 13.4079 10.4956 4.62894 1.53804
533 2 13.4379 10.3034 7.21621 1.43662
534 2 15.4433 11.7957 8.16341 1.81229
100 1 17.8175 12.9039 6.34549 1.35509
160 1 20.2786 9.11745 6.45238 1.56313
171 1 20.1029 11.6674 5.46748 0.321317
604 2 17.945 10.3371 4.60709 2.20318
605 2 17.6585 10.3871 7.27068 2.70709
606 2 20.3446 11.7484 8.17389 1.90648
172 1 22.2237 12.9255 6.40329 0.349723
232 1 24.7514 9.17198 6.4611 0.524861
243 1 24.69 11.6328 5.59707 0.399334
676 2 22.6025 10.5125 4.6228 1.5481
677 2 22.7238 10.484 7.39691 1.94088
678 2 24.8736 11.8347 8.31848 1.59017
244 1 26.8975 12.7581 6.36818 0.437343
748 2 26.9995 10.3116 4.8448 1.62507
749 2 27.0311 10.4067 7.36074 1.8352
304 1 29.1879 9.09384 6.29192 0.891008
315 1 29.1569 11.889 5.56513 0.394372
316 1 31.3963 13.0352 6.40649 0.295109
750 2 29.1284 11.8083 8.34756 2.05048
820 2 31.5208 10.3224 4.92617 1.93112
821 2 31.2812 10.5646 7.51358 1.65295
376 1 33.7669 9.18691 6.42943 0.458776
387 1 33.7958 11.7271 5.44214 0.425062
388 1 35.9812 13.0378 6.39824 0.414449
461 2 35.5647 10.4155 7.42527 2.40071
822 2 33.7141 11.6574 8.46603 1.42684
472 2 11.4158 14.3056 4.65117 1.34312
39 1 13.6172 15.5734 5.66377 0.594132
40 1 15.7226 16.8467 6.36509 0.292495
474 2 13.5498 15.5186 8.20366 1.25464
544 2 15.433 14.4117 4.50967 2.28569
545 2 15.9914 14.4181 7.29328 1.45641
111 1 18.0789 15.6557 5.50345 0.346934
112 1 20.2385 16.7945 6.42006 0.479802
546 2 18.0335 15.6806 8.23983 1.43203
616 2 20.271 14.0902 4.41772 1.86321
617 2 19.9404 14.0899 7.32728 1.66623
183 1 22.3962 15.5155 5.53072 1.11869
184 1 24.8153 16.9225 6.48985 0.460934
618 2 22.2108 15.6288 8.16223 2.33265
688 2 24.8495 14.1582 4.56521 1.88525
689 2 24.5862 14.269 7.27051 2.04319
255 1 26.8227 15.6227 5.32553 1.65075
690 2 26.9704 15.5616 8.03052 2.0927
256 1 29.2111 16.8829 6.43979 0.437511
327 1 31.3846 15.6579 5.46424 0.403258
760 2 29.1386 14.3995 4.5252 1.33476
761 2 29.2367 14.4236 7.44251 1.36011
762 2 31.3986 15.4892 8.26878 1.6988
328 1 33.5338 16.8892 6.57023 0.547218
399 1 35.9266 15.6049 5.57153 1.1315
832 2 33.5637 14.2066 4.52402 1.70406
833 2 33.7427 14.1797 7.30904 1.1367
834 2 35.9118 15.6231 8.31297 1.54441
400 1 38.2151 16.8036 6.2279 0.41826
473 2 38.2627 13.9713 7.20623 2.16981
51 1 15.6548 19.4924 5.61197 0.903729
484 2 13.7079 18.1762 4.50465 1.42213
486 2 15.5927 19.2315 8.418 2.27975
496 2 15.7418 22.0241 4.56555 1.40611
52 1 18.0006 20.8736 6.418 1.38593
123 1 20.3107 19.3627 5.44546 1.01736
556 2 17.9999 18.0577 4.45944 1.32734
557 2 18.0696 18.223 7.50284 1.93661
558 2 20.3487 19.4747 8.50902 1.71667
568 2 20.3962 22.2357 4.57866 1.14422
569 2 20.3155 22.2663 7.6482 2.15214
124 1 22.3233 20.7351 6.39356 0.31765
195 1 24.6712 19.335 5.61277 1.05161
628 2 22.0603 18.2124 4.26776 4.21072
629 2 22.44 18.0832 7.41318 1.67751
630 2 24.6321 19.58 8.40315 1.35419
640 2 24.622 22.1245 4.56215 1.14301
641 2 24.6807 22.1578 7.23751 1.32127
196 1 26.9024 20.8238 6.47113 1.21664
700 2 26.8419 18.1487 4.55894 1.78785
701 2 26.74 18.4447 7.22518 2.42584
267 1 29.1146 19.1609 5.40431 1.27962
268 1 31.4229 20.7184 6.40049 0.477542
702 2 29.2594 19.8722 8.60811 3.90847
712 2 29.3374 22.2867 4.65834 2.25226
713 2 29.1727 21.9958 7.34323 1.17806
772 2 31.5463 18.1917 5.0185 2.82118
773 2 31.0107 18.4119 7.37769 3.08117
339 1 33.679 19.4127 5.49639 1.47104
340 1 35.8327 20.7512 6.35286 0.91016
774 2 33.7995 19.3775 8.17163 1.9348
784 2 33.6416 21.8092 4.57708 1.42654
785 2 33.6858 22.2954 7.46434 1.95237
844 2 35.7402 18.2566 4.32309 2.26783
845 2 36.118 17.9153 7.34813 1.94027
411 1 38.2095 19.3633 5.42235 0.803854
412 1 40.404 20.8012 6.35528 0.376709
485 2 40.4651 18.1987 7.23742 0.951076
846 2 38.0055 19.6308 8.23806 1.5165
856 2 38.3117 22.0707 4.59235 0.966583
857 2 38.1753 22.0306 7.51378 1.63272
497 2 42.7746 21.9521 7.45452 1.26939
63 1 17.9566 23.2483 5.4642 0.64185
64 1 20.2334 24.6152 6.43991 1.15409
498 2 17.8671 23.4998 8.13251 1.69367
135 1 22.5321 23.3165 5.59422 0.872536
136 1 24.7607 24.5763 6.32934 0.358398
570 2 22.481 23.3279 8.38264 1.74213
207 1 26.9304 23.1817 5.49952 0.376072
642 2 26.9923 23.5446 8.23519 1.33111
208 1 29.2299 24.6396 6.32041 1.12774
279 1 31.4761 23.2833 5.54683 0.448461
714 2 31.5747 23.1875 8.2024 2.23821
280 1 33.5747 24.6519 6.46811 0.401905
351 1 35.8058 23.2295 5.41849 0.862233
786 2 35.8173 23.3164 8.11958 1.57845
352 1 38.0049 24.6758 6.43426 0.374207
423 1 40.4406 23.3689 5.37631 0.91368
858 2 40.4964 23.5893 8.23411 1.64828
424 1 42.7438 24.6431 6.29521 0.382158
439 2 7.0224 4.00692 10.7487 3.5838
511 2 11.5062 3.55825 11.1315 2.56193
583 2 15.6922 3.85001 11.1002 1.30571
655 2 20.2551 3.88882 11.0063 2.15628
727 2 24.8002 4.09898 11.2013 1.97856
799 2 29.401 3.88787 10.8598 1.62858
5 1 8.99673 5.21768 9.23688 0.662451
6 1 11.1208 6.35612 10.0968 0.509738
7 1 11.2173 6.50849 12.7935 0.737757
440 2 8.98072 5.11959 11.7375 1.65719
451 2 8.90592 7.76593 11.0478 1.25986
77 1 13.5442 5.27416 9.28651 0.86019
78 1 15.896 6.4631 9.97368 0.406991
79 1 15.8014 6.3868 12.6988 1.06388
512 2 13.5438 5.09891 12.0579 1.91718
523 2 13.482 7.69986 10.926 2.01065
149 1 18.1281 5.25441 9.15415 0.620604
150 1 20.1838 6.55419 10.2041 0.415885
151 1 20.3054 6.51793 12.8776 0.508116
584 2 18.1761 5.25436 11.9509 1.28135
595 2 18.0273 7.83716 11.1541 1.99564
221 1 22.2738 5.19246 9.02473 0.945563
222 1 24.6805 6.47425 9.99557 0.910976
223 1 24.7356 6.50785 12.8054 0.351235
656 2 22.4488 4.92047 11.7593 2.00406
667 2 22.1487 7.98367 10.9124 2.71793
293 1 26.9215 5.25263 9.2195 0.443964
728 2 27.1607 5.586 11.6926 3.13736
739 2 26.9928 7.85247 10.9064 1.49556
294 1 29.2429 6.42554 9.95131 1.0297
295 1 29.2511 6.55395 12.9258 0.984621
365 1 31.4146 5.25216 9.17015 0.346214
800 2 31.4299 5.40605 12.0615 1.80847
811 2 31.4707 7.98109 11.1414 1.57645
366 1 33.804 6.4356 10.0735 0.460482
367 1 33.6991 6.50053 12.8526 0.462119
17 1 11.1856 9.02722 9.12573 1.57104
452 2 11.265 8.81716 11.909 1.75986
463 2 11.2874 11.7688 11.0565 1.81203
18 1 13.4769 10.4071 10.2258 1.05315
19 1 13.3491 10.3193 12.9961 0.35004
29 1 13.3882 12.9395 9.12428 0.379151
89 1 15.7022 9.10457 9.16281 0.974274
464 2 13.4661 12.9937 11.9497 1.49883
524 2 15.9208 9.06558 12.0832 1.86594
535 2 15.5684 11.6724 11.0613 1.33555
90 1 17.8769 10.5029 10.2009 1.07081
91 1 18.0872 10.2552 12.7707 0.639666
101 1 17.851 13.0529 9.2109 1.06488
161 1 20.3657 9.14721 9.16292 1.23222
536 2 17.9187 12.8281 12.098 1.14622
596 2 20.104 9.22797 11.66 2.4057
607 2 20.4122 11.7022 10.968 1.51483
162 1 22.534 10.5279 10.1748 0.497868
163 1 22.4671 10.3883 12.8472 1.0403
173 1 22.5698 12.9366 9.11054 0.372205
233 1 24.6745 9.07783 9.12169 0.327718
608 2 22.3476 13.092 11.826 1.73055
668 2 24.4668 8.94134 11.9855 2.32353
679 2 24.7516 11.7583 11.2494 1.69129
234 1 26.9227 10.4607 10.0928 0.374989
235 1 26.9341 10.3495 12.7088 0.870593
245 1 26.9959 12.9956 9.08618 0.330381
680 2 26.9909 13.1154 11.9872 1.14759
305 1 29.2084 9.17859 9.22464 1.22668
306 1 31.4984 10.3247 10.1398 0.577597
307 1 31.444 10.4195 12.7996 0.467182
317 1 31.5255 12.8886 9.03612 0.424273
740 2 29.1431 9.26481 12.0216 2.09395
751 2 29.2568 11.562 10.8394 1.52478
752 2 31.5298 13.0852 11.8077 1.5552
377 1 33.773 9.16107 9.34382 0.356489
378 1 35.8796 10.379 10.1053 0.298452
379 1 35.7882 10.421 12.7908 0.778627
389 1 35.9927 12.9914 9.04761 1.01779
812 2 33.7834 8.97828 11.9606 2.15098
823 2 33.5769 11.5996 11.2078 2.28038
824 2 35.8568 13.0107 11.8179 1.36805
30 1 15.5728 14.3226 10.0356 0.386343
31 1 15.7219 14.2464 12.8718 0.401284
41 1 15.8032 16.7823 9.26117 0.468355
476 2 15.9193 16.8438 11.8941 1.27156
102 1 20.1271 14.2238 9.97939 1.06613
103 1 20.2904 14.1367 12.8362 0.732017
113 1 20.2305 16.9528 9.11418 0.403606
547 2 17.8902 15.3963 11.1107 1.64744
548 2 20.1816 17.1761 11.99 1.97729
174 1 24.6963 14.2214 9.9867 0.389732
175 1 24.5299 14.2886 12.73 1.28546
185 1 24.7442 16.8251 9.23184 0.450941
619 2 22.4248 15.7883 11.1167 2.05445
620 2 24.8209 16.9186 11.7342 1.81279
691 2 26.8177 15.5327 11.1327 1.58248
246 1 29.2062 14.3076 10.1677 0.385104
247 1 29.2224 14.1315 12.8208 0.324155
257 1 29.2461 16.8124 9.0814 0.341283
692 2 29.0842 16.6452 11.7608 1.98219
763 2 31.4146 15.5565 10.9268 1.45322
318 1 33.6568 14.306 10.0793 1.07642
319 1 33.6412 14.233 12.8611 0.87203
329 1 33.6348 16.866 9.0807 0.414841
764 2 33.7996 16.9006 11.8822 1.07039
835 2 35.7857 15.6452 10.9468 1.48679
390 1 38.1973 14.294 10.174 1.07475
391 1 38.2346 14.3018 12.98 0.472731
401 1 38.1633 16.8386 9.10214 1.11386
475 2 40.5974 15.5696 11.0363 1.6303
836 2 38.2095 16.685 11.9144 2.06347
42 1 18.1488 18.0795 10.0674 0.588731
43 1 17.9491 18.1335 12.7731 0.349839
53 1 17.896 20.6818 9.1812 1.07623
54 1 20.266 22.2021 10.146 0.396558
55 1 20.1059 22.0585 12.9114 0.349712
488 2 17.8589 20.701 11.9334 1.59505
559 2 20.1375 19.5282 10.9346 1.60517
114 1 22.5953 18.2074 10.1281 0.564066
115 1 22.4698 18.2384 12.7304 0.437195
125 1 22.3847 20.7768 9.18525 0.56953
126 1 24.7101 22.1811 10.0501 0.357059
127 1 24.6086 22.0788 12.8272 1.07831
560 2 22.2164 20.8198 11.9099 1.55378
631 2 24.6261 19.3583 11.2739 2.20325
186 1 26.9273 18.0989 10.0553 0.908951
187 1 26.9133 18.2502 12.9319 0.952202
197 1 26.9046 20.7626 9.27793 0.875906
632 2 26.8483 20.6897 12.0686 1.57692
198 1 29.1943 22.1418 10.0664 0.375584
199 1 29.2774 21.9822 12.8166 0.44326
258 1 31.3572 18.0689 10.0389 1.00914
259 1 31.4583 18.1776 12.79 0.465632
269 1 31.4535 20.7757 9.08999 0.455933
703 2 29.33 19.4014 11.3443 3.22321
704 2 31.469 20.6992 11.914 1.18852
270 1 33.5702 21.8721 10.0474 0.423316
271 1 33.6837 21.8937 12.8965 0.847162
330 1 35.9149 18.1729 10.1265 0.365517
331 1 35.9866 18.2107 12.7794 0.236021
341 1 35.8109 20.5896 9.16491 0.434921
775 2 33.6227 19.4395 10.8192 1.18461
776 2 36.0185 20.8381 12.0868 2.01737
342 1 38.0677 22.0283 10.0813 0.764562
343 1 38.2467 22.1313 12.8056 0.993349
402 1 40.3483 18.18 10.0614 0.773754
403 1 40.3735 18.0953 12.7848 0.456452
413 1 40.4236 20.8262 9.09127 1.02743
847 2 38.324 19.3236 11.1096 1.45262
848 2 40.4544 20.6857 11.8466 1.63701
414 1 42.8404 22.0707 10.1164 0.667574
415 1 42.6858 21.8966 12.8407 1.01629
487 2 42.5892 19.4551 10.7598 1.86359
65 1 20.1988 24.6374 9.25613 0.381566
500 2 20.0215 24.7587 11.935 1.62277
66 1 22.4579 25.9973 10.0574 0.94106
67 1 22.5249 25.8772 12.8904 1.03925
137 1 24.6419 24.6102 9.15898 0.439547
571 2 22.5384 23.1774 11.1073 1.91236
572 2 24.9475 24.6056 11.657 2.55031
138 1 27.0158 25.9514 10.0917 0.539493
139 1 26.9573 25.8508 12.897 0.513343
643 2 26.9852 23.3326 10.942 1.38474
209 1 29.2169 24.5355 9.21277 0.797852
210 1 31.5354 26.0456 10.0189 1.04722
211 1 31.5149 25.9043 12.9568 0.328395
644 2 29.3803 24.3713 11.9731 1.54227
715 2 31.5476 23.4138 11.1486 1.27074
281 1 33.5979 24.6273 9.09693 0.385389
282 1 35.9635 25.9708 10.1496 1.03386
283 1 35.9489 25.9409 12.8851 0.421775
716 2 33.741 24.8 12.0508 1.56947
787 2 35.7623 23.3829 10.6714 1.80128
353 1 38.0441 24.6727 9.12685 0.947258
354 1 40.4988 25.8235 9.95261 1.22631
355 1 40.5038 25.9065 12.8965 1.25182
788 2 38.1646 24.655 11.7618 1.79701
859 2 40.518 23.0886 10.804 1.87146
425 1 42.7885 24.5595 9.19751 0.54355
426 1 44.967 25.9944 10.0841 0.97869
427 1 44.8695 25.9406 12.8926 1.22689
499 2 44.8424 23.227 11.0987 1.17572
860 2 42.6032 24.5151 11.895 1.08466
441 2 9.2335 5.1039 14.8604 1.89125
442 2 11.3111 6.78134 15.6481 1.34289
8 1 13.4767 7.82469 13.9127 1.0888
9 1 13.4448 7.73317 16.6907 0.979763
513 2 13.3737 5.11642 14.705 1.24012
514 2 15.8706 6.70026 15.5217 2.26382
80 1 17.9092 7.89703 13.7439 0.435331
81 1 17.9314 7.90553 16.4965 0.382652
585 2 18.1878 5.27742 14.5789 2.38931
586 2 20.6151 6.32511 15.4871 2.94758
152 1 22.3605 7.81284 13.7107 0.964931
153 1 22.5497 7.83271 16.6688 1.23901
657 2 22.6672 5.18072 14.5092 2.02842
658 2 24.5635 6.43341 15.9548 2.82243
224 1 26.7388 7.65507 13.875 0.693032
225 1 26.8742 7.68646 16.5351 0.524403
729 2 26.686 5.3139 14.5984 2.80211
296 1 31.4596 7.6963 13.7835 0.360692
297 1 31.4624 7.98101 16.4628 0.472187
730 2 29.2313 6.25639 15.6175 1.34985
801 2 31.4794 5.0856 14.955 1.45017
368 1 35.9482 7.7047 13.7194 0.32463
369 1 35.7992 7.77573 16.488 0.865477
802 2 33.9063 6.49917 15.4094 1.69717
453 2 11.2745 9.08418 14.5916 0.880829
10 1 15.7579 9.08017 17.6439 1.1113
20 1 15.6246 11.8223 13.7738 0.480913
21 1 15.6526 11.7247 16.4513 1.16297
454 2 13.6201 10.2837 15.6382 1.99139
525 2 15.7908 9.23849 14.5082 1.85912
22 1 17.8142 12.9918 17.5479 1.11834
82 1 20.0772 9.03214 17.4527 0.997852
92 1 20.0726 11.5984 13.7494 0.432709
93 1 20.2183 11.7219 16.548 0.876288
526 2 18.0165 10.4863 15.6141 1.18127
537 2 18.0569 12.9209 14.6626 1.80005
597 2 20.1656 8.96255 14.6464 1.41959
94 1 22.4036 13.0811 17.3449 1.19703
154 1 24.7309 9.03457 17.4666 0.54353
164 1 25.0168 11.6492 13.8884 1.68807
165 1 24.7373 11.6862 16.5755 0.992707
598 2 22.229 10.2624 15.5678 2.74618
609 2 22.4662 12.7616 14.6211 1.28124
669 2 24.7142 8.75298 14.7946 1.70859
166 1 26.9605 12.9333 17.2206 0.457758
670 2 26.831 10.3562 15.6225 1.86266
681 2 27.0097 13.1422 14.7038 1.86003
226 1 29.2106 9.11325 17.329 0.382375
236 1 29.3904 11.643 13.7422 1.1972
237 1 29.3158 11.6192 16.4723 0.248377
238 1 31.5271 13.0978 17.3964 0.812578
741 2 28.9985 8.77633 14.9234 2.73844
742 2 31.3578 10.6592 15.3122 2.72815
753 2 31.4966 13.1284 14.6964 1.32711
298 1 33.6992 9.18993 17.4509 0.950195
308 1 33.6827 11.5592 13.6887 0.410284
309 1 33.6921 11.7118 16.5906 1.29644
310 1 35.8206 12.9162 17.4152 1.28687
813 2 33.463 9.0288 14.7034 1.51683
814 2 35.8709 10.2788 15.7481 2.00328
825 2 36.0148 12.9322 14.417 2.09781
370 1 38.1195 9.19939 17.3619 0.348555
380 1 38.2057 11.7882 13.8449 0.46269
381 1 38.3343 11.5852 16.4357 0.449273
382 1 40.3945 12.8693 17.3766 0.527251
465 2 40.2557 13.0485 14.682 1.91119
466 2 15.716 14.2079 15.3359 2.55409
32 1 18.0525 15.6567 13.6798 0.461429
33 1 17.9955 15.6072 16.5078 0.478394
34 1 20.2644 16.8464 17.5077 0.901025
538 2 19.9517 14.2111 15.6054 1.27745
549 2 20.2237 16.7751 14.5676 1.3407
104 1 22.4298 15.5036 13.7815 0.372398
105 1 22.3641 15.6274 16.37 0.590875
106 1 24.5908 16.7857 17.3726 1.16998
610 2 24.6163 14.0846 15.5499 1.49112
621 2 24.5776 16.4196 14.8879 3.31845
176 1 26.96 15.7264 13.902 1.41662
177 1 26.9056 15.4778 16.55 0.429311
178 1 29.1865 16.8008 17.4852 0.881445
248 1 31.3603 15.6141 13.6183 0.370656
249 1 31.4902 15.64 16.3444 0.466232
682 2 29.148 14.2379 15.6158 1.2001
693 2 29.3907 16.8381 14.8692 1.9082
250 1 33.8408 16.8439 17.5114 0.437572
320 1 36.0135 15.6331 13.7152 0.266536
321 1 35.9343 15.494 16.4962 0.520915
754 2 33.7752 14.4626 15.708 1.64872
765 2 33.7557 16.6534 14.6072 1.45725
322 1 38.2035 16.7438 17.4055 1.39511
392 1 40.3215 15.5982 13.6132 0.473169
393 1 40.537 15.5229 16.5027 1.05396
826 2 38.1436 14.3152 15.8331 1.41805
837 2 38.2641 17.0152 14.73 1.34687
394 1 42.6868 16.8519 17.5284 0.533092
477 2 42.6752 16.7698 14.8808 1.53973
44 1 20.3138 19.291 13.7767 0.392594
45 1 20.1928 19.5256 16.4606 0.793799
478 2 17.8277 17.9254 15.5835 2.33492
490 2 20.1526 22.3578 15.425 2.0461
46 1 22.4474 20.7829 17.4806 0.407952
116 1 24.6611 19.3434 13.6779 0.429964
117 1 24.6855 19.4305 16.4897 0.563485
550 2 22.3402 18.3198 15.4005 1.86577
561 2 22.6248 20.8704 14.6337 1.32738
562 2 24.7134 22.1893 15.4433 2.32549
118 1 26.9353 20.767 17.4598 0.539971
622 2 26.8092 18.3045 15.5192 1.4391
633 2 26.5606 20.896 14.9719 2.95857
188 1 29.2812 19.4329 13.8692 0.43149
189 1 29.2151 19.5207 16.4216 0.919899
190 1 31.5106 20.8276 17.3908 1.07948
634 2 28.9922 21.9413 15.3706 2.30272
694 2 31.502 18.1604 15.752 1.25487
705 2 31.5702 20.8263 14.602 1.53087
260 1 33.557 19.2989 13.6769 0.389971
261 1 33.6614 19.4715 16.4976 0.814912
262 1 35.9396 20.7086 17.5552 1.17552
706 2 33.8057 22.2603 15.5654 1.70007
766 2 35.7149 18.0147 15.5177 1.98104
777 2 35.6375 20.8044 14.8272 1.56295
332 1 38.3468 19.4054 13.7128 1.18533
333 1 38.1702 19.4763 16.6126 0.963666
334 1 40.2643 20.8473 17.3983 1.25529
778 2 38.1002 21.981 15.5024 1.80745
838 2 40.5188 18.2747 15.6888 1.29599
849 2 40.59 20.6871 14.334 2.6757
404 1 42.5729 19.3465 13.8208 0.437996
405 1 42.7512 19.3353 16.5813 0.993713
406 1 44.9521 20.7422 17.412 0.446142
489 2 44.9261 20.6742 14.775 1.74973
850 2 42.5901 22.0459 15.787 1.75923
56 1 22.3902 23.362 13.7277 0.759785
57 1 22.6314 23.3362 16.5894 0.965822
58 1 24.765 24.7397 17.418 1.12344
502 2 22.3724 25.9361 15.5285 1.33852
573 2 24.8999 24.6947 14.6988 1.57912
128 1 27.0164 23.24 13.7743 0.389042
129 1 26.9726 23.3266 16.4762 0.332006
574 2 27.1139 25.8976 15.7279 1.88125
130 1 29.0035 24.7139 17.3077 0.429103
200 1 31.4809 23.3996 13.7592 0.323227
201 1 31.4754 23.4287 16.4557 1.13624
645 2 29.0855 24.5598 14.6976 2.00245
646 2 31.1637 25.975 15.6568 1.65859
202 1 33.6212 24.7534 17.4583 0.530842
272 1 35.9334 23.4621 13.5575 0.967114
273 1 35.9554 23.514 16.5305 1.48641
717 2 33.7504 24.8338 14.5935 1.68658
718 2 35.9767 25.8212 15.9444 2.68853
274 1 38.2143 24.6217 17.495 0.432926
344 1 40.4053 23.4053 13.8418 1.10776
345 1 40.5627 23.4096 16.5748 0.408894
789 2 38.3157 24.4316 14.8096 2.01466
790 2 40.522 26.2703 15.3477 2.22815
346 1 42.7982 24.5903 17.3964 0.568632
416 1 45.0318 23.3193 13.8639 0.344685
417 1 44.8342 23.25 16.5343 0.555096
861 2 42.6552 24.6083 14.6376 1.6561
862 2 44.9107 25.8379 16.0791 2.4769
418 1 47.0491 24.6667 17.4532 1.52462
501 2 47.0145 24.7339 14.5266 1.76776
68 1 24.5386 27.2442 13.7871 0.462471
69 1 24.6083 27.3765 16.4535 0.366821
70 1 26.966 28.4114 17.256 0.404838
140 1 29.1978 27.1277 13.8159 0.816291
141 1 29.2098 27.1865 16.5416 0.516468
142 1 31.4422 28.5655 17.4624 1.32923
212 1 33.6574 27.1487 13.6172 0.485532
213 1 33.6313 27.1637 16.5179 0.318393
214 1 35.8237 28.4134 17.4241 0.424638
284 1 38.2678 27.3146 13.7581 0.617463
285 1 38.1579 27.1942 16.4406 0.353998
286 1 40.4197 28.3389 17.2496 1.13254
356 1 42.7799 27.2617 13.6691 1.34435
357 1 42.8259 27.2037 16.6291 0.566087
358 1 44.9629 28.6395 17.5354 0.374699
428 1 47.0919 27.2851 13.6918 0.98826
429 1 47.203 27.4419 16.4932 0.94096
430 1 49.3739 28.475 17.4866 0.429503
443 2 11.1923 6.53288 18.5039 1.61301
444 2 13.5425 7.98446 19.3008 1.55757
515 2 15.7511 6.29419 18.1165 1.92017
516 2 18.137 7.91534 19.4037 2.23777
587 2 20.2025 6.44832 18.3805 1.31591
588 2 22.628 7.71105 19.4031 2.02889
659 2 24.9361 6.28861 18.3914 1.64858
660 2 26.9969 7.74525 19.1862 1.32366
721 2 31.5029 7.60293 21.8292 1.26887
731 2 29.333 6.60251 18.1263 1.43143
732 2 31.6338 7.72912 19.2146 1.60885
793 2 35.9491 7.78593 22.0967 1.16144
803 2 33.8171 6.71198 18.4281 1.42417
804 2 36.0852 7.84572 19.5672 2.28982
11 1 15.8573 8.95461 20.2591 0.589737
455 2 13.3958 10.3833 18.1378 1.59858
456 2 15.6121 11.8236 19.0903 1.96377
12 1 17.9114 10.3758 21.0093 0.451087
23 1 17.8954 12.8542 20.2679 0.528241
83 1 20.2851 9.08656 20.1734 0.393772
527 2 18.2019 10.3955 18.3685 1.51126
528 2 20.1365 11.6028 19.537 1.83882
84 1 22.4273 10.4396 21.182 0.659961
95 1 22.3815 13.0363 20.1852 0.334359
155 1 24.6614 9.17873 20.0972 1.0854
599 2 22.4456 10.5308 18.7294 3.0816
600 2 24.9004 11.728 19.4485 1.98424
156 1 27.1124 10.264 21.0209 0.444654
167 1 26.8831 13.002 20.0799 0.946946
671 2 26.9358 10.5319 18.3859 1.49117
227 1 29.1818 9.00144 20.0694 0.45545
228 1 31.3753 10.1765 21.0014 0.417123
239 1 31.4826 12.8284 20.2535 0.958399
672 2 29.3056 11.5474 19.2542 1.22783
743 2 31.4431 10.2817 18.487 1.51021
299 1 33.6631 9.03641 20.3166 0.285721
300 1 36.0151 10.4396 21.1578 0.311488
311 1 35.8086 12.8852 20.1487 0.502462
733 2 33.6512 11.5218 22.3043 1.76163
744 2 33.7415 11.7088 19.2966 1.88569
815 2 35.982 10.3781 18.5202 1.4393
371 1 38.1742 9.09815 20.1354 0.32284
372 1 40.4669 10.3847 20.8993 1.00062
383 1 40.3266 12.9591 19.9577 0.280532
805 2 38.3542 11.5063 21.9347 1.68626
816 2 37.987 11.8097 18.9126 2.3863
24 1 20.1195 14.2341 21.0104 0.428372
35 1 20.1605 16.763 20.1993 0.445524
468 2 17.9862 15.6268 19.3999 1.71115
539 2 20.191 14.1167 18.3433 1.33247
96 1 24.6451 14.098 21.0638 0.401156
107 1 24.6562 16.7106 20.1928 0.995017
540 2 22.6505 15.6262 19.3365 2.06631
611 2 24.9466 14.323 18.4054 1.93075
612 2 27.1084 15.8045 19.4785 2.26101
168 1 29.1309 14.1628 21.0947 1.06961
179 1 29.2592 16.8038 20.1555 0.56972
683 2 29.1031 14.1847 18.3918 1.37196
684 2 31.3368 15.4837 19.0964 1.49135
240 1 33.6179 14.1176 20.9643 0.357089
251 1 33.5745 16.889 20.0649 0.424145
745 2 35.6391 15.483 22.1906 3.75545
755 2 33.7313 14.2219 18.3274 2.4995
756 2 35.8562 15.4138 19.1363 1.60272
312 1 38.1829 14.1228 21.0792 1.53555
323 1 38.2041 16.8429 20.1462 1.2617
817 2 40.8289 15.6679 22.1281 2.39114
827 2 38.4687 14.4386 18.2077 1.97095
828 2 40.6833 15.4992 19.4442 2.23478
384 1 42.7482 14.2488 21.1926 0.497565
395 1 42.7916 16.7648 20.3751 0.700701
467 2 42.6849 14.5207 18.5302 1.63637
480 2 20.2214 19.4113 19.2632 1.52879
36 1 22.5743 18.1323 21.1744 0.409347
47 1 22.5358 20.5267 20.0763 0.509007
48 1 24.757 22.1955 21.1593 0.548676
551 2 22.3911 18.2997 18.1913 1.42466
552 2 24.6947 19.6205 19.1223 1.90634
563 2 24.6387 22.123 18.3479 1.29446
108 1 26.9779 18.1631 21.1059 0.534971
119 1 26.9529 20.6792 20.1159 0.381039
623 2 26.8054 18.2114 18.0739 2.21309
120 1 29.112 22.0303 21.0039 0.459072
180 1 31.3641 18.1759 20.9216 0.471792
191 1 31.5253 20.7746 20.1809 1.07449
624 2 29.0241 19.3959 18.9971 2.11033
635 2 29.2074 21.9808 18.4886 2.26968
695 2 31.7039 17.9974 18.2771 2.19217
192 1 33.6006 22.0606 21.0871 0.427308
252 1 35.9207 18.2578 21.1523 1.28944
263 1 35.8888 21.0088 20.3241 0.677646
696 2 33.6045 19.5492 19.257 1.5541
707 2 33.602 22.2443 18.4086 1.36473
767 2 36.2402 18.2341 18.3349 2.01094
264 1 38.1195 22.0561 21.1541 0.41185
324 1 40.4314 18.0947 21.2163 0.546477
335 1 40.4044 20.803 20.1567 1.18167
757 2 38.096 19.4062 22.1442 1.21087
768 2 38.1079 19.6461 19.1658 1.58213
779 2 38.2572 22.3285 18.434 2.13732
839 2 40.2981 18.0458 18.5851 1.71562
336 1 42.8155 22.1211 21.1953 0.48569
396 1 45.036 18.0537 21.1264 0.375995
407 1 44.8343 20.7808 20.1684 1.11627
479 2 44.986 17.9643 18.0133 2.29392
829 2 42.6518 19.4519 22.1157 2.32392
840 2 42.6369 19.1316 19.296 2.65507
851 2 42.6516 22.1513 18.5388 1.52787
408 1 47.1646 21.84 21.139 1.16223
491 2 47.1707 22.1456 18.2287 1.68015
59 1 24.8229 24.65 20.0659 0.392099
492 2 22.4875 23.205 19.4099 1.61031
503 2 22.1861 26.1099 18.469 2.31948
60 1 26.8925 25.9318 21.0805 0.442134
564 2 27.1736 23.3855 19.4553 2.39541
575 2 26.8531 25.8944 18.5247 2.29981
131 1 29.0747 24.5629 20.1445 0.422457
132 1 31.3929 25.76 21.0097 1.32503
636 2 31.6188 23.456 19.3201 1.76866
647 2 31.5494 26.2094 18.2203 2.00288
203 1 33.9034 24.6367 20.1627 0.522759
204 1 35.9542 25.9618 21.2991 1.07294
708 2 35.803 23.2584 19.2615 1.93819
719 2 35.8623 26.0225 18.2653 1.68749
275 1 38.2143 24.6304 20.2489 1.23785
276 1 40.4793 26.1053 21.0972 0.358085
769 2 40.3387 23.2839 22.1144 1.49784
780 2 40.5557 23.3521 19.4472 3.91789
791 2 40.4904 25.7549 18.3735 1.60341
347 1 42.5313 24.5175 20.1766 0.545237
348 1 44.9716 25.9352 21.0434 0.438109
841 2 45.0879 23.3895 21.8627 2.0209
852 2 44.9435 23.3715 19.2538 1.66015
863 2 44.8646 25.9615 18.5494 1.86893
419 1 47.1308 24.7428 20.219 0.484401
420 1 49.4883 25.9045 21.1675 0.778577
504 2 24.682 27.3812 19.192 1.35283
71 1 26.9519 28.6799 20.135 0.854106
72 1 29.3192 29.9184 21.0648 0.513247
143 1 31.3723 28.5974 20.2443 0.335753
576 2 28.8962 27.1955 19.2034 1.90847
144 1 33.5149 29.8449 21.1521 0.871804
215 1 35.9127 28.5787 20.1199 0.937955
648 2 33.6439 27.1853 19.2304 1.40056
216 1 38.1875 29.7675 21.0776 0.90577
287 1 40.5326 28.5128 20.2459 0.968749
720 2 38.1888 27.2568 19.2668 1.34989
288 1 42.6956 29.7915 20.896 0.380853
359 1 44.9292 28.6163 20.1063 0.335717
781 2 42.93 27.1119 22.1369 1.71567
792 2 42.677 27.0582 19.153 1.58749
360 1 47.2839 29.8704 21.0534 0.394798
431 1 49.4153 28.6242 20.18 0.369985
853 2 47.3433 27.3274 22.0888 2.18846
864 2 47.2207 27.2642 19.2111 1.06929
432 1 51.704 29.7294 21.0463 0.313394
ITEM: TIMESTEP
50
ITEM: NUMBER OF ATOMS
864
ITEM: BOX BOUNDS xy xz yz pp pp pp
-1.0173946033575399e-02 5.3943422240942567e+01 1.3488924677349420e+01
-9.9276800689239563e-03 3.1141684648026281e+01 1.3489401257901591e+01
-9.7490329222862226e-03 2.2018350978755329e+01 7.7881094474563639e+00
ITEM: ATOMS id type x y z f_grace_gamma
433 2 -0.0709124 -0.0167105 -0.150288 1.28781
434 2 2.03197 1.34423 0.935781 1.8412
435 2 2.10183 1.30624 3.36236 1.65899
445 2 2.2277 3.80614 -0.0884135 1.29405
1 1 4.44423 2.67886 1.71417 0.297677
2 1 6.65547 3.88624 2.67311 0.41612
505 2 4.42888 0.179398 0.298024 1.59585
506 2 6.74669 1.28365 0.926395 0.996937
507 2 7.0393 1.28523 3.60442 1.85213
517 2 6.48778 3.84097 0.0898498 1.84175
73 1 8.88402 2.50411 1.98837 0.471788
74 1 11.2379 3.84328 2.96028 1.18357
577 2 8.89498 -0.0491672 -0.115598 1.59656
578 2 11.2269 1.39067 0.681288 1.58624
579 2 11.3163 1.21168 3.19861 3.24425
589 2 11.201 3.85062 0.0623109 1.90443
145 1 13.5662 2.50532 1.79023 1.11179
146 1 15.8556 3.77908 2.8791 1.62121
649 2 13.5479 -0.190142 -0.0567253 1.53426
650 2 15.9352 1.20352 0.576758 1.93784
651 2 15.6201 1.16362 3.22246 3.08765
661 2 15.8931 3.87409 0.216401 2.04306
217 1 18.0835 2.53115 1.99511 1.15553
218 1 20.4035 3.90267 2.81275 1.41639
722 2 20.1677 1.09166 1.11439 1.88837
723 2 20.1195 1.28549 3.79968 1.53548
289 1 22.4763 2.51137 1.83792 0.587125
290 1 24.6193 4.00656 2.59788 0.381295
794 2 24.7596 1.30044 0.89311 1.16983
795 2 24.7971 1.33184 3.67522 1.55757
361 1 26.9268 2.75335 1.67565 1.35326
362 1 29.2632 3.9975 2.66585 0.837446
13 1 6.6735 6.49871 1.81788 0.437724
446 2 4.431 5.32742 1.07671 1.71121
447 2 4.62705 5.17669 3.81718 1.45932
457 2 4.54657 7.70095 0.218615 2.46926
14 1 8.7947 7.7311 2.77555 0.991683
85 1 11.0201 6.19603 1.74172 1.47943
518 2 8.76212 4.88008 0.931208 2.31161
519 2 8.8999 5.11362 3.75308 1.54259
529 2 8.91874 7.43942 -0.00284062 2.03925
86 1 13.5625 7.83721 2.85563 1.72846
157 1 15.8138 6.23023 1.70211 0.586317
590 2 13.3947 5.08313 0.721943 1.15165
591 2 13.7345 5.06788 3.57437 1.29289
601 2 13.2034 7.71767 0.105597 1.22249
158 1 18.1365 7.65114 2.54314 1.26351
229 1 20.4874 6.48426 1.74135 1.09837
662 2 18.2137 5.26487 0.926397 1.81425
663 2 18.0647 5.17489 3.60718 1.1958
673 2 18.248 7.81138 -0.251813 1.87862
230 1 22.659 7.99508 2.78287 1.08216
301 1 24.8831 6.57024 1.68295 0.398701
734 2 22.7213 5.00483 0.867313 2.01285
735 2 22.5401 5.35385 3.60269 1.33027
302 1 26.8368 7.78894 2.96147 1.78356
806 2 27.1521 5.32678 0.630512 2.02174
807 2 27.048 5.04419 3.63446 1.52494
373 1 29.2196 6.70306 1.87711 0.438079
374 1 31.4029 7.72437 2.91278 0.436551
458 2 6.94706 8.98441 0.811263 1.81188
25 1 8.97558 10.4401 1.88615 1.2274
26 1 11.4218 11.5874 2.74675 0.894108
470 2 9.07268 12.9834 0.937401 0.916862
471 2 9.23862 12.9068 3.71307 1.2658
530 2 11.0635 8.81324 1.17958 2.02033
531 2 10.9344 9.12099 3.75828 1.81842
541 2 11.2505 11.718 -0.0412518 1.8075
97 1 13.516 10.2182 1.70148 0.539011
98 1 15.6635 11.622 2.85742 1.44694
542 2 13.7434 12.7627 0.829749 1.64272
543 2 13.5162 13.0818 3.57613 1.49867
602 2 15.874 8.65808 0.755271 2.24387
603 2 15.8704 9.00858 3.32136 2.79584
613 2 15.8912 11.389 0.0562769 1.99423
169 1 17.9805 10.2112 1.82701 1.12678
170 1 20.0827 11.8181 2.6645 0.371084
614 2 17.8942 12.8446 1.10059 2.01712
615 2 17.7835 12.9776 3.83958 2.17983
674 2 20.2965 9.27697 0.838577 1.85503
675 2 20.2104 9.2055 3.78441 2.17123
685 2 20.2168 11.9229 -0.129788 1.74901
241 1 22.3243 10.5404 1.88638 1.31163
242 1 24.6734 11.5868 2.86658 1.1412
686 2 22.5444 13.0329 0.952409 1.60364
687 2 22.447 12.9902 3.59776 1.48252
746 2 24.7136 9.11163 1.04695 2.2532
747 2 24.8016 9.16083 3.93539 1.93443
313 1 27.0406 10.4313 1.97268 0.381902
758 2 27.0404 12.943 0.790463 1.065
759 2 26.9966 12.9999 3.49387 2.0549
314 1 29.2462 11.6467 2.85801 0.857152
385 1 31.7322 10.227 1.96354 1.34536
818 2 29.5333 9.40273 1.12764 3.25321
819 2 29.1089 9.07026 3.50498 1.86583
830 2 31.3993 13.1741 0.86292 1.72925
831 2 31.3727 12.9017 3.5868 1.36283
386 1 33.757 11.7215 2.84652 0.600424
459 2 33.5587 9.10722 3.58313 2.02449
469 2 33.7591 11.5151 0.224829 1.24062
37 1 11.4038 14.2078 1.88006 1.1189
482 2 11.195 16.8013 0.788029 1.20042
38 1 13.6332 15.7147 2.90688 1.02154
109 1 15.7365 14.422 1.727 0.806914
553 2 13.5704 15.3288 0.231157 2.14394
554 2 15.4278 17.0782 0.826701 2.26356
555 2 15.9838 16.8724 3.58099 1.53551
110 1 18.1271 15.5107 2.79794 1.25525
181 1 20.3375 14.4337 1.70085 0.40403
625 2 17.6677 15.3282 0.143655 2.56366
626 2 20.0003 16.9375 0.697413 1.84165
627 2 20.2198 16.7227 3.38905 1.5822
182 1 22.6101 15.5324 2.91181 0.438128
253 1 24.7511 14.2499 1.85198 0.330818
697 2 22.358 15.7231 0.113299 2.11764
698 2 24.7694 16.9 1.26077 1.87068
699 2 24.5853 16.7255 3.96207 1.79936
254 1 26.9594 15.6841 2.57227 0.414593
325 1 29.1545 14.2463 1.98416 0.451832
326 1 31.3952 15.5534 2.63471 0.269372
770 2 29.3514 16.7241 0.85932 1.62064
771 2 29.2669 16.9781 3.61837 1.65243
397 1 33.6562 14.2453 1.84758 0.727093
398 1 36.0053 15.5415 2.74732 0.95106
481 2 35.789 15.4973 0.0264194 1.26707
842 2 33.7733 16.8523 0.814426 1.8264
843 2 33.6084 16.9348 3.44352 1.71961
483 2 38.2452 17.0303 3.46743 1.4655
493 2 11.112 19.2993 0.0322039 1.50511
49 1 13.3321 18.2346 1.92924 0.968252
50 1 15.7687 19.52 2.87089 0.89314
61 1 15.9456 22.0862 1.777 0.282978
494 2 13.4896 20.868 0.850221 1.37567
495 2 13.5058 20.766 3.57105 1.48476
565 2 15.7614 19.5166 0.00796324 1.59261
121 1 17.8721 18.1035 1.77967 0.930666
122 1 20.1612 19.5027 2.63422 0.789694
133 1 20.3303 22.0855 1.87591 0.324982
566 2 18.0963 20.7885 0.974709 1.12712
567 2 18.1123 20.7652 3.77778 1.00128
637 2 20.0699 19.4945 -0.200836 1.44748
193 1 22.4709 18.2131 1.87822 0.295908
194 1 24.8886 19.3688 2.78115 1.56201
205 1 24.9173 22.1744 1.76244 0.400923
638 2 22.708 20.7543 0.991236 1.54562
639 2 22.5575 20.6603 3.70758 1.6379
709 2 24.7589 19.3501 -0.0335589 1.03756
265 1 27.2065 18.2188 1.76464 0.522169
710 2 27.0148 20.7378 0.96462 0.95418
711 2 27.0989 20.771 3.77866 1.00813
266 1 29.3288 19.5165 2.70862 0.902057
277 1 29.2493 22.2132 1.70565 0.492469
337 1 31.5936 18.2651 1.72873 0.980202
782 2 31.5175 20.85 0.952312 1.45831
783 2 31.5927 20.52 3.7464 1.83086
338 1 33.8554 19.5594 2.69173 0.320925
349 1 33.7902 22.0496 1.70842 0.399624
409 1 35.9369 18.1986 1.64509 0.352935
854 2 36.0833 20.8485 0.863484 0.980033
855 2 36.0165 21.0331 3.68284 2.10393
410 1 38.1054 19.5711 2.73784 0.485189
421 1 38.2653 22.1404 1.77094 0.314396
62 1 18.0565 23.3663 2.89158 0.364714
134 1 22.6802 23.2846 2.68486 0.395158
206 1 27.0444 23.2852 2.68575 0.575356
278 1 31.5487 23.2713 2.74587 0.342548
350 1 35.9597 23.398 2.67566 0.51475
422 1 40.509 23.3531 2.51732 0.49631
3 1 6.71128 3.8453 5.42254 0.811555
436 2 4.51717 2.39378 4.44545 2.10394
437 2 4.85056 2.55074 7.40864 2.01206
438 2 6.76204 4.21832 8.0246 2.54646
75 1 11.1387 3.8808 5.86927 1.84348
508 2 9.24075 2.42253 4.70015 1.61541
509 2 9.06177 2.47671 7.27159 1.63574
510 2 11.3278 4.01228 8.57845 1.81568
147 1 15.5042 3.9653 5.57454 1.39751
580 2 13.3488 2.30907 4.5787 1.87864
581 2 13.4681 2.71971 7.25085 1.25656
582 2 15.7073 3.83889 8.49585 1.59814
219 1 20.1048 3.81576 5.3824 0.35474
652 2 17.6112 2.44523 4.67695 2.45504
653 2 17.6517 2.62693 7.28436 2.0934
654 2 20.0663 3.5899 8.07466 2.6643
291 1 24.6937 3.74019 5.35614 0.341088
724 2 22.3434 2.56266 4.53804 1.50811
725 2 22.246 2.70648 7.33193 1.28388
726 2 24.7657 3.99975 8.15484 1.9859
796 2 26.8316 2.51841 4.3103 3.17093
797 2 26.9799 2.62573 6.98709 1.11732
363 1 29.2102 3.80015 5.49871 0.868432
798 2 29.2456 3.62548 8.22008 1.1286
448 2 6.78715 6.69963 4.5626 1.36213
449 2 6.75325 6.75776 7.21632 1.82487
4 1 8.83979 5.19563 6.51714 1.11108
15 1 8.96912 7.92307 5.47348 0.721287
450 2 8.90029 7.79474 8.16363 0.994431
520 2 11.5214 6.35133 4.43211 1.54607
521 2 11.1679 6.53463 6.99284 2.0885
76 1 13.3372 5.21557 6.48497 0.623113
87 1 13.4504 7.74747 5.67212 0.433701
522 2 13.4848 7.81201 8.3582 1.43604
592 2 15.7721 6.79387 4.3429 2.26922
593 2 15.6962 6.35 7.19838 1.98019
148 1 17.9892 5.21755 6.34149 1.1628
159 1 18.152 7.73439 5.55614 0.90514
594 2 18.1195 7.98835 8.45925 1.66531
664 2 20.2195 6.49036 4.53047 1.1521
665 2 20.3278 6.39585 7.31409 1.62648
220 1 22.5615 5.194 6.25818 0.755658
231 1 22.5618 7.86762 5.41147 0.323273
666 2 22.4963 7.72779 8.02698 1.34239
736 2 24.7977 6.34201 4.47873 1.44121
737 2 24.8204 6.65947 7.18112 1.77619
292 1 26.8371 5.21596 6.52074 1.01409
303 1 26.9802 7.77175 5.65212 0.605693
738 2 27.0923 7.83995 8.2957 1.12181
364 1 31.4452 5.12574 6.41645 0.562681
375 1 31.5314 7.69554 5.71975 0.347855
808 2 29.3165 6.36284 4.54877 1.68861
809 2 29.3254 6.28982 7.28215 1.73348
810 2 31.4954 7.99001 8.47081 1.49015
16 1 11.1735 9.18492 6.36001 0.405636
27 1 11.2247 11.7143 5.59478 0.902578
460 2 8.83348 10.5962 4.57233 2.27603
462 2 11.1444 11.4187 8.40006 2.03058
28 1 13.6785 12.9572 6.45116 1.1416
88 1 15.7487 8.83533 6.26874 0.492257
99 1 15.6641 11.4654 5.55533 0.511626
532 2 13.3965 10.3499 4.43285 2.27472
533 2 13.45 10.3055 7.30051 1.78602
534 2 15.5415 11.8295 8.29343 1.38211
100 1 17.7457 12.8661 6.31487 1.6465
160 1 20.3473 9.13005 6.52729 0.502213
171 1 19.974 11.6217 5.39906 0.326725
604 2 17.7501 10.2918 4.63919 1.58286
605 2 17.7448 10.3651 7.52563 1.96497
606 2 20.2105 11.6502 8.21045 1.57118
172 1 22.1218 12.927 6.34634 0.450103
232 1 24.8021 9.18602 6.50677 0.649681
243 1 24.6104 11.6422 5.62971 0.339363
676 2 22.4226 10.4458 4.63548 1.11115
677 2 22.7094 10.4614 7.5583 2.52777
678 2 24.9455 11.7079 8.44928 1.76935
244 1 26.8302 12.8287 6.3532 0.462385
748 2 27.0941 10.4885 4.74479 1.84281
749 2 27.1589 10.2384 7.59142 2.12666
304 1 29.2576 9.13394 6.32462 1.11758
315 1 29.2054 11.9362 5.53766 0.460368
316 1 31.4211 13.128 6.32645 0.409044
750 2 29.1535 11.8788 8.23406 1.85261
820 2 31.3319 10.4151 4.94676 2.30343
821 2 31.2253 10.5535 7.55847 1.94693
376 1 33.6691 9.2672 6.4421 0.998308
387 1 33.8096 11.813 5.52263 0.441284
388 1 36.0166 13.0651 6.34459 0.483386
461 2 35.9375 10.6659 7.51159 1.93958
822 2 33.7314 11.6852 8.52319 1.86462
472 2 11.3976 14.4048 4.64827 1.75134
39 1 13.6048 15.5957 5.71334 0.403786
40 1 15.8418 16.954 6.39763 0.891826
474 2 13.5413 15.5443 8.41925 1.22192
544 2 15.741 14.2312 4.40861 1.68636
545 2 15.9775 14.5039 7.32803 1.96091
111 1 18.0707 15.5954 5.49631 0.485676
112 1 20.2819 16.7887 6.38999 0.345352
546 2 18.1439 15.7414 8.31429 1.66989
616 2 20.2337 14.0916 4.38583 1.88646
617 2 19.7877 14.1467 7.13017 2.2299
183 1 22.4475 15.4849 5.51188 0.334764
184 1 24.8037 16.8519 6.58316 0.537479
618 2 22.2272 15.4075 8.23883 1.57105
688 2 24.5883 14.0248 4.56182 1.63308
689 2 24.4534 14.2938 7.14137 1.90837
255 1 26.8373 15.6166 5.24448 1.66569
690 2 26.8892 15.6979 7.97401 2.11351
256 1 29.0892 16.7442 6.38693 0.410751
327 1 31.3697 15.647 5.43532 0.609779
760 2 29.1741 14.4377 4.75581 1.71603
761 2 29.1464 14.3054 7.35674 1.12682
762 2 31.5548 15.5425 8.15704 1.49886
328 1 33.4471 16.9305 6.51905 0.584697
399 1 35.884 15.6434 5.52606 1.2596
832 2 33.6196 14.3634 4.55723 1.24901
833 2 33.7415 14.1887 7.2861 1.09231
834 2 35.9464 15.475 8.29904 1.07152
400 1 38.2991 16.721 6.20308 0.461606
473 2 38.287 14.1302 7.42521 1.50488
51 1 15.7234 19.5441 5.69998 0.97006
484 2 13.7551 18.0972 4.5161 1.63453
486 2 15.5981 19.2 8.20165 2.23834
496 2 15.7682 22.0775 4.51889 0.985177
52 1 18.0949 20.8206 6.47616 0.445443
123 1 20.1825 19.3887 5.48052 0.309284
556 2 18.168 18.2795 4.60008 1.28368
557 2 18.087 18.3938 7.2641 1.79649
558 2 20.2175 19.6255 8.24001 1.10413
568 2 20.3848 22.0421 4.76116 1.59889
569 2 20.2225 22.1823 7.53652 1.2677
124 1 22.2928 20.7289 6.47403 0.295605
195 1 24.5742 19.3787 5.63478 1.00544
628 2 22.3758 17.8144 4.53897 2.44468
629 2 22.4964 18.1359 7.24862 1.47468
630 2 24.5854 19.6206 8.49335 1.55333
640 2 24.6204 21.9793 4.47263 1.3806
641 2 24.5865 22.0477 7.30178 1.20938
196 1 26.8838 20.8065 6.51503 1.04298
700 2 26.7796 18.2218 4.41924 1.85123
701 2 26.986 18.457 7.41364 1.62427
267 1 29.0409 19.2061 5.37181 1.31094
268 1 31.4182 20.7288 6.34059 0.997732
702 2 28.9283 19.6511 8.74181 3.97865
712 2 29.3086 22.1413 4.5098 1.52036
713 2 29.176 22.1766 7.28816 1.6054
772 2 31.4861 18.1307 4.94485 2.1872
773 2 30.9227 18.4524 7.66197 3.98602
339 1 33.6917 19.373 5.47246 0.605439
340 1 35.8123 20.6771 6.33474 0.762676
774 2 33.6233 19.3279 7.97742 1.82506
784 2 33.5622 21.8526 4.45223 1.5983
785 2 33.6924 22.0068 7.28933 1.66672
844 2 35.8727 18.1387 4.30151 1.39636
845 2 36.0709 18.0094 7.18311 2.10387
411 1 38.2139 19.3353 5.36638 0.841977
412 1 40.368 20.8822 6.35801 0.359603
485 2 40.2889 18.2015 7.19943 1.02404
846 2 38.1194 19.5083 8.21272 1.68478
856 2 38.1915 22.0458 4.68642 1.51827
857 2 38.1832 22.1816 7.34625 1.68749
497 2 42.6712 21.9018 7.42045 1.97623
63 1 18.0242 23.2539 5.49373 0.604717
64 1 20.2276 24.5901 6.38705 0.370626
498 2 18.0861 23.5269 8.08372 1.42922
135 1 22.552 23.3373 5.63057 0.827157
136 1 24.8221 24.5845 6.26452 0.439124
570 2 22.4858 23.4036 8.49424 1.48633
207 1 26.9646 23.1444 5.44374 0.49327
642 2 26.9313 23.5257 8.1722 1.23475
208 1 29.1866 24.6039 6.25713 1.17088
279 1 31.5342 23.2671 5.53409 0.368907
714 2 31.3201 23.3753 8.26984 1.51894
280 1 33.5158 24.7052 6.46839 0.381
351 1 35.7257 23.2235 5.32943 0.353065
786 2 35.9038 23.3261 7.98216 1.67112
352 1 37.9331 24.5851 6.3832 0.541293
423 1 40.4678 23.3761 5.33631 0.865219
858 2 40.4584 23.5408 8.04981 1.58266
424 1 42.8423 24.5703 6.23705 0.969306
439 2 6.72427 3.88491 10.966 1.31603
511 2 11.3564 3.72012 11.2499 1.49616
583 2 15.8737 3.78248 11.2414 1.69397
655 2 20.2721 3.90579 10.7184 1.68594
727 2 25.1076 4.01202 11.025 2.85141
799 2 29.3072 3.8661 10.9912 1.30157
5 1 9.03027 5.24513 9.1657 0.647044
6 1 11.1726 6.33113 10.1061 0.442192
7 1 11.2276 6.40764 12.8556 0.707946
440 2 9.14632 5.04123 12.0854 2.12334
451 2 9.00841 7.79127 10.9911 1.35471
77 1 13.5838 5.30942 9.34747 1.25382
78 1 15.9972 6.48177 9.94906 0.588081
79 1 15.8648 6.32275 12.6585 1.27589
512 2 13.4962 5.05632 12.1482 2.1363
523 2 13.6154 7.57788 11.0926 1.15928
149 1 18.2058 5.23785 9.13652 0.459441
150 1 20.1931 6.62197 10.2207 0.371067
151 1 20.3109 6.53481 12.8911 0.32659
584 2 18.2069 5.13351 11.8747 1.20484
595 2 17.9687 7.8766 11.118 1.17112
221 1 22.1805 5.12509 8.95923 1.54914
222 1 24.5871 6.50772 9.94113 1.08833
223 1 24.6315 6.43192 12.7742 0.841317
656 2 22.4965 5.16896 11.6288 1.80256
667 2 22.3691 7.97481 10.8848 1.33806
293 1 26.9614 5.202 9.18533 0.860854
728 2 27.2648 5.49269 11.9091 2.39377
739 2 26.9938 8.12003 10.9313 2.19536
294 1 29.2525 6.52832 9.94659 0.94599
295 1 29.2271 6.62831 12.9675 1.32059
365 1 31.4825 5.24478 9.14982 0.815239
800 2 31.5238 5.25163 12.0497 1.60119
811 2 31.4314 7.82866 11.1421 1.06401
366 1 33.7722 6.53769 10.0659 0.376927
367 1 33.7564 6.46523 12.7751 0.478245
17 1 11.2154 9.03946 9.16222 1.43694
452 2 11.1782 9.05147 11.7664 1.4053
463 2 11.1482 11.6527 11.2158 1.08251
18 1 13.4034 10.3412 10.2596 1.00034
19 1 13.3053 10.343 13.0458 0.346141
29 1 13.2807 12.9519 9.20382 1.07035
89 1 15.7539 9.15922 9.18316 0.969991
464 2 13.416 13.0069 11.9828 1.4391
524 2 15.6727 9.08573 11.8926 1.48074
535 2 15.6225 11.7837 11.0509 1.06596
90 1 17.8594 10.5721 10.165 1.09945
91 1 18.0573 10.2611 12.8175 0.464215
101 1 17.7339 13.0821 9.1943 0.461412
161 1 20.4745 9.23839 9.10451 1.32691
536 2 17.9425 12.7499 12.0227 1.40592
596 2 20.2392 9.24318 11.755 1.63783
607 2 20.2285 11.7955 10.9264 1.32377
162 1 22.659 10.5877 10.207 0.448946
163 1 22.4671 10.4704 12.911 1.15072
173 1 22.5567 12.9678 9.02301 0.482622
233 1 24.6866 9.12509 9.1532 0.383432
608 2 22.4483 13.072 11.6476 2.31692
668 2 24.5073 8.99085 11.9133 1.57553
679 2 24.7558 11.7622 11.3996 2.22225
234 1 26.8912 10.5219 10.0393 0.495778
235 1 26.9501 10.3059 12.7204 0.438792
245 1 27.0492 13.108 9.09839 0.389047
680 2 26.9146 13.0251 11.945 1.76363
305 1 29.2241 9.21923 9.21386 1.12696
306 1 31.5497 10.3495 10.1301 0.434418
307 1 31.5434 10.377 12.703 0.549519
317 1 31.5435 12.8903 9.04032 0.447033
740 2 29.2408 9.16131 12.1436 1.86152
751 2 29.2889 11.7178 10.9759 1.76154
752 2 31.4417 13.0467 11.7173 1.9356
377 1 33.815 9.10126 9.36713 0.406785
378 1 35.9738 10.4646 10.1403 0.367
379 1 35.8793 10.422 12.8108 0.89544
389 1 36.0222 13.0395 9.03691 0.538183
812 2 33.6969 8.97 12.1305 1.65528
823 2 33.6581 11.6199 11.0705 1.47718
824 2 35.9126 13.0948 11.6328 2.03347
30 1 15.5057 14.2514 10.0175 0.572937
31 1 15.706 14.3385 12.7562 0.267541
41 1 15.8316 16.7816 9.27474 1.02499
476 2 15.7795 16.8481 12.0741 1.43398
102 1 20.1564 14.2645 9.93204 1.15497
103 1 20.2304 14.1285 12.8055 0.860452
113 1 20.3522 16.9598 9.14005 1.18651
547 2 17.9372 15.2632 10.9718 1.91224
548 2 20.1964 16.9909 11.8422 1.58426
174 1 24.7032 14.2214 9.94135 0.393096
175 1 24.5269 14.293 12.7073 1.50232
185 1 24.7552 16.79 9.16698 1.33235
619 2 22.3281 15.7276 11.0202 1.73952
620 2 24.8072 16.9164 12.0678 1.46571
691 2 26.761 15.5018 11.059 1.61817
246 1 29.2074 14.2606 10.1506 0.836998
247 1 29.2444 14.1067 12.8692 0.443101
257 1 29.1929 16.8228 9.04446 0.341959
692 2 29.0498 16.6708 11.8959 1.78867
763 2 31.5134 15.626 10.8755 1.47696
318 1 33.6633 14.2639 10.0467 0.440225
319 1 33.6652 14.2466 12.888 1.3206
329 1 33.5931 16.8683 9.19131 0.280716
764 2 33.6983 16.9097 11.8463 1.22679
835 2 35.8836 15.5952 10.9181 1.59271
390 1 38.1957 14.344 10.1974 0.881625
391 1 38.1889 14.2538 13.0525 0.42046
401 1 38.1906 16.8553 9.02329 0.620399
475 2 40.5219 15.7241 10.9487 1.48712
836 2 38.1643 16.6639 11.8282 1.38322
42 1 18.14 18.0398 10.1257 0.395469
43 1 17.9578 18.1935 12.7876 0.647395
53 1 17.9429 20.6647 9.14798 1.04144
54 1 20.2361 22.2291 10.3048 0.393555
55 1 20.0792 22.0192 12.903 0.36838
488 2 17.91 20.6238 11.9427 1.56104
559 2 20.1484 19.7318 11.0877 1.62609
114 1 22.6067 18.2928 10.0584 0.369079
115 1 22.5214 18.2011 12.6724 0.3772
125 1 22.402 20.8727 9.22917 0.39084
126 1 24.7057 22.1629 10.0375 0.435726
127 1 24.5441 22.0759 12.7859 1.32339
560 2 22.1975 20.8162 11.9783 1.73454
631 2 24.7248 19.6796 11.0074 1.49707
186 1 26.9913 18.1075 10.0853 0.841285
187 1 27.0076 18.2584 12.918 0.435663
197 1 26.8542 20.837 9.35175 0.396981
632 2 26.8839 20.8301 12.1899 1.9091
198 1 29.2665 22.0868 10.1185 0.318101
199 1 29.3584 21.8988 12.7857 1.22829
258 1 31.3297 18.0935 10.0079 0.587267
259 1 31.3609 18.101 12.7151 0.480004
269 1 31.4725 20.7092 9.05633 0.451751
703 2 29.1686 19.378 11.3285 2.61266
704 2 31.5672 20.7348 11.7738 1.5403
270 1 33.5367 21.8421 10.0769 0.558187
271 1 33.6756 21.8622 12.8707 0.877327
330 1 35.9315 18.1241 10.0867 0.268679
331 1 36.0726 18.2571 12.7775 0.863875
341 1 35.7309 20.6239 9.17406 1.02043
775 2 33.6076 19.266 10.843 1.44315
776 2 36.1136 20.8928 12.026 2.0038
342 1 37.9897 22.0021 10.1095 0.90837
343 1 38.3501 22.1769 12.7868 1.37627
402 1 40.3652 18.183 9.94895 0.990848
403 1 40.4297 18.0548 12.7181 0.360696
413 1 40.42 20.9094 9.02054 0.860924
847 2 38.1209 19.3538 11.0441 1.32238
848 2 40.432 20.589 11.6785 1.65187
414 1 42.8816 22.0251 10.1506 1.07672
415 1 42.6905 21.8539 12.942 0.950504
487 2 42.7044 19.3601 10.9456 1.46491
65 1 20.2128 24.7616 9.23008 0.275655
500 2 20.1314 24.8396 11.8893 1.44069
66 1 22.5476 25.9603 10.0471 0.85437
67 1 22.5012 25.8453 12.8199 0.319512
137 1 24.6567 24.7193 9.03985 1.15336
571 2 22.5615 23.4638 11.1581 1.76735
572 2 24.8953 24.3963 11.8652 2.26758
138 1 27.1154 25.9264 10.0518 1.32873
139 1 26.9932 25.7746 12.9768 1.22654
643 2 27.1154 23.2789 10.9891 1.76073
209 1 29.3149 24.634 9.18091 0.367225
210 1 31.541 26.0841 10.0207 0.354713
211 1 31.4879 25.9278 12.9294 0.324153
644 2 29.369 24.5557 11.9887 1.32902
715 2 31.7264 23.4613 11.002 1.52157
281 1 33.6198 24.613 9.16627 0.541926
282 1 35.9654 26.0508 10.1187 0.919602
283 1 36.0453 26.0276 12.9506 0.551323
716 2 33.8072 24.6812 11.9003 1.29147
787 2 35.6248 23.3215 10.5974 2.71398
353 1 37.994 24.6755 9.05163 0.937237
354 1 40.5311 25.7831 9.91122 1.16008
355 1 40.56 25.9741 12.7786 0.746399
788 2 38.2474 24.727 11.7607 2.2093
859 2 40.4207 23.1023 10.8831 1.78696
425 1 42.882 24.5223 9.20492 0.907157
426 1 45.0718 26.0065 10.093 1.09003
427 1 44.86 25.9372 12.9513 0.403919
499 2 45.0244 23.3883 11.1917 1.37038
860 2 42.6036 24.4969 11.9406 1.35177
441 2 8.99908 5.31924 14.8544 1.30753
442 2 11.206 6.79611 15.6508 1.72998
8 1 13.5313 7.76668 14 1.63581
9 1 13.4991 7.70878 16.8266 1.54805
513 2 13.3373 5.10239 14.5884 1.24695
514 2 15.7437 6.6619 15.3286 2.58476
80 1 17.8689 7.83053 13.7844 1.35159
81 1 17.9197 7.92348 16.512 1.10408
585 2 18.2053 5.34847 14.6859 1.98266
586 2 20.7229 6.31281 15.6369 2.4749
152 1 22.4178 7.84608 13.7251 0.815846
153 1 22.4759 7.83782 16.7892 1.46664
657 2 22.6891 5.07458 14.4192 2.41145
658 2 24.5114 6.29959 15.9364 2.3704
224 1 26.7603 7.71009 13.8213 1.12116
225 1 26.8874 7.5775 16.5542 0.549639
729 2 26.8526 5.30113 14.5027 2.19334
296 1 31.4543 7.68529 13.8196 0.430739
297 1 31.4981 8.08406 16.4396 1.40976
730 2 29.175 6.13763 15.5629 1.82109
801 2 31.5505 4.97179 14.9781 2.21689
368 1 35.9326 7.70743 13.7421 0.340807
369 1 35.7989 7.77374 16.566 0.283285
802 2 33.7593 6.48862 15.4134 1.84848
453 2 11.1052 9.32154 14.5317 2.02213
10 1 15.7664 9.10972 17.6909 0.519546
20 1 15.5547 11.8484 13.7931 1.21944
21 1 15.6628 11.7162 16.4364 0.451688
454 2 13.652 10.1533 15.613 1.85885
525 2 15.8033 9.4186 14.7513 2.42764
22 1 17.7143 13.0319 17.5739 0.446359
82 1 20.1753 9.03578 17.4572 0.381772
92 1 20.0959 11.5287 13.7855 0.361015
93 1 20.1597 11.7328 16.6555 1.22662
526 2 17.9978 10.5265 15.6232 1.44144
537 2 17.8744 13.0243 14.7931 1.35511
597 2 20.0728 8.8863 14.6493 1.82427
94 1 22.4425 13.1417 17.3154 0.454804
154 1 24.7543 9.03895 17.5404 0.591727
164 1 25.1105 11.6321 14.0025 2.36314
165 1 24.6689 11.6219 16.6614 0.404871
598 2 22.2845 10.1981 15.6845 1.85298
609 2 22.4597 12.6251 14.4734 2.21537
669 2 24.4063 8.84781 14.8864 2.91515
166 1 27.0285 12.8633 17.1647 0.646679
670 2 26.9241 10.3214 15.5677 2.50423
681 2 27.2158 13.2186 14.4694 2.6133
226 1 29.1683 9.16731 17.3552 0.487602
236 1 29.3966 11.5848 13.7273 1.37361
237 1 29.3479 11.6564 16.4656 0.372192
238 1 31.5323 13.1409 17.409 0.466666
741 2 28.9572 8.70471 14.6494 3.23156
742 2 31.5287 10.6195 15.4142 2.07523
753 2 31.6543 13.3095 14.596 2.3905
298 1 33.72 9.27991 17.5216 0.424833
308 1 33.6327 11.5701 13.8064 0.328239
309 1 33.6334 11.7404 16.546 0.48224
310 1 35.9124 12.8835 17.3707 1.25537
813 2 33.5687 9.08516 14.7637 1.37908
814 2 35.884 10.4196 15.6866 1.90503
825 2 35.8164 12.9961 14.5124 1.41105
370 1 38.0421 9.13229 17.3425 0.929342
380 1 38.1779 11.7683 13.8214 0.672958
381 1 38.3529 11.5825 16.3226 0.551691
382 1 40.4704 12.9001 17.2767 0.485782
465 2 40.3336 13.1879 14.7519 2.06726
466 2 15.7675 14.1739 15.6355 1.56374
32 1 18.0624 15.6172 13.687 0.901365
33 1 17.9626 15.5746 16.5819 0.972361
34 1 20.298 16.8304 17.5056 0.415254
538 2 20.1458 14.2008 15.5751 1.13973
549 2 20.2732 16.685 14.7807 1.3431
104 1 22.3506 15.4467 13.6966 0.32679
105 1 22.2818 15.6689 16.3389 0.577382
106 1 24.5101 16.7622 17.4325 1.17639
610 2 24.5506 13.9559 15.5749 2.45883
621 2 24.5678 16.4899 14.7039 2.1701
176 1 26.9945 15.8228 13.9211 1.63412
177 1 26.8551 15.4955 16.618 0.538003
178 1 29.1995 16.7985 17.5214 0.934434
248 1 31.349 15.6328 13.4979 0.668657
249 1 31.5282 15.6825 16.2688 1.61067
682 2 29.2495 14.2705 15.6753 1.26087
693 2 29.3121 16.9438 14.8277 1.2517
250 1 33.9843 16.8603 17.4292 1.20484
320 1 36.0679 15.6688 13.6963 1.00137
321 1 36.0126 15.4843 16.4844 0.469831
754 2 33.8019 14.1684 15.6848 1.99809
765 2 33.5662 16.6606 14.5671 1.38921
322 1 38.2665 16.751 17.3685 1.40298
392 1 40.4095 15.6252 13.6428 0.596868
393 1 40.6013 15.5084 16.5022 0.97594
826 2 38.1785 14.2314 15.7325 1.40681
837 2 38.2866 16.9899 14.7757 1.26256
394 1 42.6805 16.8568 17.664 0.976212
477 2 42.5392 16.636 14.7902 1.56606
44 1 20.3009 19.3109 13.7638 0.402189
45 1 20.1834 19.5717 16.4566 0.96442
478 2 17.9939 18.0682 15.2798 1.82372
490 2 20.3485 22.4395 15.6451 2.3616
46 1 22.4641 20.8302 17.4319 0.34633
116 1 24.6318 19.2945 13.7967 0.34231
117 1 24.6007 19.4446 16.4534 0.983802
550 2 22.4093 18.2879 15.3696 1.63738
561 2 22.5602 20.9381 14.6989 1.20387
562 2 24.5983 22.3832 15.5844 2.57262
118 1 26.9331 20.8078 17.4918 0.310984
622 2 26.8748 18.1446 15.4802 1.36441
633 2 26.4952 20.7412 14.7999 2.51683
188 1 29.2859 19.4594 13.929 0.517971
189 1 29.2348 19.5354 16.4722 0.777692
190 1 31.5322 20.8711 17.3787 0.976562
634 2 29.0656 21.9446 15.4708 1.3163
694 2 31.5706 18.346 15.572 1.48869
705 2 31.6212 20.9237 14.6973 1.57813
260 1 33.6196 19.1962 13.661 1.31942
261 1 33.7055 19.5232 16.5001 0.831675
262 1 35.9119 20.8199 17.6488 1.02192
706 2 33.6931 22.4722 15.7166 2.58979
766 2 35.7796 18.0465 15.5113 2.02314
777 2 35.6713 20.7367 14.8114 1.47528
332 1 38.3193 19.5188 13.7756 0.97186
333 1 38.1188 19.4103 16.5842 0.930532
334 1 40.2916 20.8801 17.4016 1.11324
778 2 38.1537 21.8692 15.5689 1.99878
838 2 40.463 18.3209 15.7657 1.64829
849 2 40.4566 20.9168 14.4644 2.18656
404 1 42.651 19.1796 13.8075 0.378374
405 1 42.7896 19.3397 16.6581 1.04376
406 1 44.9405 20.7072 17.487 0.594753
489 2 44.9349 20.5681 14.6942 1.69974
850 2 42.5879 21.8238 15.776 1.65764
56 1 22.3523 23.4005 13.8274 0.345373
57 1 22.6389 23.3935 16.6702 1.11409
58 1 24.7692 24.8614 17.3563 0.412963
502 2 22.3305 25.8191 15.6717 2.00888
573 2 24.8895 24.7746 14.5911 1.93013
128 1 27.0164 23.1352 13.7054 1.06899
129 1 26.9136 23.3021 16.4921 0.297783
574 2 26.935 25.9881 15.7926 1.6375
130 1 29.0023 24.7042 17.3611 0.956435
200 1 31.5531 23.4051 13.7994 0.256293
201 1 31.4264 23.4819 16.4714 0.365308
645 2 29.1759 24.4406 14.6171 1.37741
646 2 31.2832 25.9517 15.5419 1.58196
202 1 33.6333 24.7824 17.4794 0.384965
272 1 35.9537 23.4193 13.4754 1.37904
273 1 36.0008 23.477 16.5591 1.56453
717 2 33.7614 24.8111 14.8439 1.34731
718 2 35.9582 26.1742 15.6225 1.6807
274 1 38.2402 24.7347 17.5465 0.409612
344 1 40.504 23.4007 13.8351 1.13419
345 1 40.5502 23.5185 16.6276 1.00632
789 2 38.1965 24.6454 14.825 2.31589
790 2 40.6574 26.2666 15.5175 2.02827
346 1 42.8771 24.6038 17.4534 0.41834
416 1 44.9487 23.2965 13.915 0.879373
417 1 44.8768 23.1626 16.5672 0.61199
861 2 42.7891 24.6651 14.6284 1.42502
862 2 45.1065 25.813 16.0378 2.56934
418 1 47.0401 24.7334 17.444 1.43991
501 2 47.1168 25.0506 14.616 2.5682
68 1 24.5693 27.2592 13.7534 0.504851
69 1 24.5976 27.4383 16.4201 0.488671
70 1 26.915 28.3841 17.2736 0.673484
140 1 29.243 27.1096 13.8705 0.828352
141 1 29.2188 27.3242 16.5548 0.462836
142 1 31.4814 28.6809 17.4147 1.16366
212 1 33.7499 27.2513 13.608 0.336273
213 1 33.5458 27.2 16.4337 1.45608
214 1 35.8462 28.4405 17.3871 1.60428
284 1 38.3121 27.217 13.74 0.542225
285 1 38.1629 27.1245 16.4385 0.502205
286 1 40.5175 28.232 17.2283 0.615142
356 1 42.7907 27.3419 13.6926 0.974982
357 1 42.9325 27.1818 16.6489 0.620229
358 1 45.0913 28.7638 17.5675 0.475947
428 1 47.1398 27.3569 13.63 1.1117
429 1 47.1774 27.5077 16.4716 0.451216
430 1 49.4026 28.5864 17.5589 0.401379
443 2 11.2759 6.68959 18.2766 1.82767
444 2 13.6646 8.0524 19.3034 2.39072
515 2 15.621 6.41176 18.2392 2.1469
516 2 18.0986 7.8011 19.3682 2.19278
587 2 20.2889 6.49575 18.439 1.08541
588 2 22.6673 7.72738 19.4114 2.45224
659 2 24.9571 6.26072 18.5078 1.93589
660 2 26.966 7.75358 19.2807 1.27498
721 2 31.5271 7.48158 21.8852 1.71142
731 2 29.2322 6.59606 18.1322 1.79442
732 2 31.6056 7.78866 19.0789 1.51302
793 2 36.0418 7.8585 22.1603 1.41587
803 2 33.9935 6.73015 18.2919 2.15427
804 2 35.9545 7.90532 19.5131 1.46232
11 1 15.9111 9.02308 20.2288 0.576946
455 2 13.3555 10.3969 18.1553 1.55794
456 2 15.6105 11.7032 19.0934 1.60515
12 1 17.9463 10.3373 21.0292 0.560844
23 1 17.8203 12.8531 20.325 0.521152
83 1 20.3581 9.06119 20.2386 0.893231
527 2 18.0141 10.5324 18.344 1.12311
528 2 20.1453 11.7025 19.4321 1.12034
84 1 22.4012 10.4637 21.3529 0.556427
95 1 22.31 13.0358 20.1402 0.390071
155 1 24.7179 9.21045 20.0923 1.56237
599 2 22.4591 10.5618 18.426 2.23909
600 2 24.6454 11.7632 19.3514 1.50365
156 1 27.1361 10.2475 21.017 1.31755
167 1 26.9808 13.0222 19.9663 1.45944
671 2 26.9763 10.4923 18.3104 1.46198
227 1 29.2376 8.87444 19.9043 0.637955
228 1 31.37 10.0738 21.0758 0.434619
239 1 31.4159 12.7131 20.2543 0.492301
672 2 29.2574 11.5906 19.3284 1.38343
743 2 31.5018 10.3982 18.1636 1.5
299 1 33.7509 9.06763 20.3581 0.282234
300 1 36.0246 10.4191 21.2437 0.330854
311 1 35.8177 12.8639 20.1651 0.399762
733 2 33.636 11.4517 22.0206 1.3428
744 2 33.5987 11.4959 19.3472 1.68004
815 2 35.8491 10.2932 18.5763 1.73561
371 1 38.2497 9.16962 20.1304 1.04231
372 1 40.5815 10.3902 20.7561 0.531734
383 1 40.2889 12.8972 19.9122 0.545073
805 2 38.4733 11.5626 21.8179 2.06756
816 2 37.9836 11.9381 19 2.15665
24 1 20.1069 14.1598 21.0385 0.409085
35 1 20.2535 16.7162 20.1409 1.08688
468 2 18.0349 15.4517 19.2665 1.53741
539 2 20.1412 14.1315 18.3223 1.28729
96 1 24.6265 14.0135 21.101 0.444624
107 1 24.7412 16.6771 20.272 1.25658
540 2 22.3933 15.5779 19.1063 1.90565
611 2 25.0545 14.284 18.3688 2.70242
612 2 27.0221 15.7909 19.4668 2.50469
168 1 29.1332 14.0835 21.0918 0.478539
179 1 29.3492 16.7942 20.1258 1.43413
683 2 29.0043 14.0451 18.3979 1.73516
684 2 31.3651 15.2618 18.981 2.42289
240 1 33.5869 14.0393 20.9775 0.463652
251 1 33.5816 16.8821 20.0834 1.1171
745 2 35.7871 15.5119 22.0924 2.64091
755 2 33.6894 14.2534 18.3403 1.94559
756 2 36.0075 15.4275 19.3043 1.13427
312 1 38.1519 14.0969 21.0232 0.352178
323 1 38.2031 16.8135 20.1741 1.21539
817 2 40.8116 15.7301 22.4726 3.05952
827 2 38.5476 14.3613 18.5554 2.74605
828 2 40.5946 15.6534 19.6248 2.45676
384 1 42.7756 14.1633 21.2363 0.384585
395 1 42.8932 16.7009 20.502 1.46205
467 2 42.723 14.3344 18.4673 1.08255
480 2 20.0316 19.3894 19.3112 1.53684
36 1 22.6207 18.0012 21.1967 1.24503
47 1 22.5615 20.4787 20.1681 0.985463
48 1 24.7704 22.1846 21.1238 0.919641
551 2 22.4676 18.2368 18.1872 1.63015
552 2 24.8104 19.4438 19.1227 1.01671
563 2 24.772 22.2822 18.3116 1.64777
108 1 26.972 18.0685 20.968 1.08093
119 1 26.9228 20.6648 20.1227 0.558478
623 2 26.7173 18.0859 18.0641 2.12803
120 1 29.1196 21.9396 21.0227 1.23544
180 1 31.3872 18.3318 20.8331 1.60689
191 1 31.4302 20.8287 20.186 0.561453
624 2 29.1818 19.2341 19.0718 2.21222
635 2 29.3836 22.0999 18.196 1.89256
695 2 31.6006 18.0892 18.1887 1.90923
192 1 33.5781 22.1871 21.1405 0.569133
252 1 35.9072 18.3022 21.1384 1.02611
263 1 35.8335 21.0435 20.3916 0.662976
696 2 33.8926 19.6161 19.2405 1.51573
707 2 33.6937 22.2036 18.3163 0.980295
767 2 36.1946 18.0895 18.4264 1.74294
264 1 38.1331 22.0905 21.2313 0.553
324 1 40.4711 18.105 21.2676 1.23327
335 1 40.4447 20.7812 20.1509 1.39483
757 2 38.2821 19.5011 22.1151 1.25431
768 2 38.0817 19.8657 19.4876 2.60389
779 2 38.2133 22.2702 18.5419 2.71971
839 2 40.2011 18.1307 18.5396 1.85685
336 1 42.8087 22.1543 21.3447 0.502283
396 1 45.1091 18.0703 21.17 0.833132
407 1 44.8364 20.7175 20.1378 0.278833
479 2 45.0504 18.127 18.1574 1.65039
829 2 42.9303 19.6321 21.9344 2.49098
840 2 42.6945 19.1622 19.3821 1.78034
851 2 42.6379 21.8885 18.563 1.87386
408 1 47.2188 21.7451 21.0892 1.50426
491 2 47.1869 22.1019 18.2564 1.20454
59 1 24.8366 24.7006 20.0169 0.389378
492 2 22.4076 23.254 19.4757 1.8052
503 2 22.3193 25.8467 18.4815 2.53045
60 1 26.9207 25.9753 21.188 0.954407
564 2 26.8485 23.1085 19.256 1.82473
575 2 26.7897 25.9193 18.4905 1.91033
131 1 29.121 24.607 20.1214 0.373553
132 1 31.3461 25.7062 20.9382 1.37145
636 2 31.4971 23.6007 19.29 1.87268
647 2 31.2427 26.0859 18.3129 1.23735
203 1 33.9862 24.6995 20.1882 0.59536
204 1 35.9834 26.0147 21.3215 0.522479
708 2 36.0894 23.4387 19.2011 2.80572
719 2 35.9601 25.8576 18.7482 2.40262
275 1 38.2352 24.6777 20.3719 0.617588
276 1 40.5978 26.078 21.1028 0.430736
769 2 40.3154 23.3936 21.9359 1.17211
780 2 40.2564 23.2462 19.4216 2.9973
791 2 40.5356 25.7206 18.3185 1.32405
347 1 42.6119 24.5696 20.1996 0.320142
348 1 45.0066 26.0055 21.0831 0.486888
841 2 45.1754 23.5441 21.8751 2.02895
852 2 44.9902 23.421 19.2212 1.15894
863 2 44.9461 26.0963 18.5874 1.83256
419 1 47.2144 24.7439 20.1722 1.32719
420 1 49.5815 25.8981 21.0948 0.387785
504 2 24.6512 27.3337 19.2511 1.51287
71 1 27.0059 28.7732 20.0694 1.22065
72 1 29.3464 29.8944 21.0985 0.398278
143 1 31.3442 28.5195 20.1603 0.802844
576 2 28.9815 27.1309 19.2973 1.25104
144 1 33.483 29.9133 21.2186 1.30447
215 1 35.858 28.5449 20.1883 0.963415
648 2 33.6312 27.3075 19.2502 0.975519
216 1 38.2135 29.7718 21.092 1.0276
287 1 40.5479 28.5603 20.1665 0.33093
720 2 38.2775 27.1197 19.2314 1.86099
288 1 42.755 29.7804 20.8223 0.455565
359 1 45.0043 28.6067 20.1624 0.443352
781 2 42.8828 27.2909 22.0205 1.27469
792 2 42.6466 27.1521 19.4649 1.74257
360 1 47.3528 29.866 21.0651 0.428353
431 1 49.4664 28.6052 20.2153 0.373375
853 2 47.3457 27.3928 21.9439 2.04241
864 2 47.06 27.5267 19.2931 2.21959
432 1 51.7154 29.7572 21.0969 0.944186
ITEM: TIMESTEP
75
ITEM: NUMBER OF ATOMS
864
ITEM: BOX BOUNDS xy xz yz pp pp pp
-2.9590082140465990e-02 5.4008395343490761e+01 1.3511623813538314e+01
-2.9585708652459280e-02 3.1174539651059145e+01 1.3512259088153993e+01
-2.8412373170797686e-02 2.2037014319003841e+01 7.8013064219056796e+00
ITEM: ATOMS id type x y z f_grace_gamma
433 2 -0.119774 -0.0299444 -0.201064 2.07838
434 2 2.01566 1.4038 1.04751 2.12756
435 2 2.33367 1.12869 3.66117 1.67686
445 2 2.31706 3.69009 -0.150675 1.99718
1 1 4.33459 2.54919 1.72037 0.343606
2 1 6.65109 3.78548 2.71782 1.58677
505 2 4.29401 -0.0527322 0.112417 1.91694
506 2 6.90005 1.24 0.876238 2.12098
507 2 7.1345 1.43116 3.77384 2.96777
517 2 6.33497 3.87239 0.144712 2.255
73 1 9.00538 2.49145 1.96458 1.03884
74 1 11.231 3.74709 3.01698 1.55125
577 2 8.81996 -0.147426 -0.236104 2.17783
578 2 11.237 1.00759 0.812411 1.62466
579 2 11.3237 1.07776 3.37122 2.33075
589 2 11.2723 3.70567 0.250946 2.02281
145 1 13.6355 2.46498 1.76839 0.994837
146 1 15.9106 3.7438 2.82723 1.49361
649 2 13.6088 -0.0943195 -0.175982 1.6696
650 2 15.8236 1.16305 0.509593 1.8916
651 2 15.8985 1.10852 3.35491 2.09609
661 2 15.9469 3.85828 0.104435 2.27593
217 1 18.0836 2.57824 1.92532 0.460736
218 1 20.365 3.90019 2.74108 1.32958
722 2 20.2637 1.15931 1.13135 1.71483
723 2 20.073 1.14037 3.65115 2.02057
289 1 22.5299 2.53814 1.82482 1.85854
290 1 24.7092 3.9325 2.58395 0.363672
794 2 24.7604 1.3381 0.716465 1.64658
795 2 24.9706 1.34236 3.6283 2.73226
361 1 26.9972 2.79242 1.50534 1.51543
362 1 29.2897 4.14132 2.64239 0.533834
13 1 6.57395 6.5052 1.73985 0.395988
446 2 4.17253 5.38711 1.0298 1.94219
447 2 4.49098 4.99522 3.76847 2.06141
457 2 4.4198 8.00945 0.399087 2.5094
14 1 8.8277 7.72743 2.69174 0.857153
85 1 10.9948 6.18736 1.68853 1.22346
518 2 8.7497 4.97449 0.893523 1.72654
519 2 9.06031 5.16718 3.76117 1.8815
529 2 8.87102 7.43352 -0.178873 2.52859
86 1 13.436 7.55963 2.93055 1.70502
157 1 15.7712 6.16088 1.79339 0.801573
590 2 13.6201 5.15505 0.768004 1.10094
591 2 13.6563 5.17454 3.50532 2.18893
601 2 13.1998 7.51322 -0.0842566 2.4901
158 1 18.2242 7.46746 2.51666 2.10285
229 1 20.5946 6.50785 1.68062 0.616167
662 2 18.3355 5.22358 0.926541 2.33229
663 2 18.1806 5.01835 3.67434 2.26588
673 2 17.9531 7.46974 -0.14594 1.57856
230 1 22.6943 8.05342 2.57314 0.654434
301 1 24.8107 6.54481 1.67849 0.41185
734 2 22.7985 5.10662 0.706276 2.07375
735 2 22.6569 5.41063 3.36954 2.18712
302 1 26.945 7.76372 2.96261 0.432993
806 2 27.1236 5.30073 0.527452 3.02815
807 2 27.0883 5.10483 3.71297 1.88949
373 1 29.1227 6.69378 2.00065 0.55439
374 1 31.5108 7.68221 3.03626 0.423292
458 2 6.95881 8.87925 1.01938 1.82412
25 1 9.01955 10.476 1.99149 1.41348
26 1 11.3403 11.5617 2.69663 0.890164
470 2 9.25261 12.8698 0.854636 1.72044
471 2 9.19543 12.9815 3.57858 1.63319
530 2 11.2188 8.98854 0.953884 1.74572
531 2 11.1827 8.91673 3.68067 1.50181
541 2 11.2317 11.6409 -0.0563098 1.63798
97 1 13.6268 10.1451 1.65549 1.56938
98 1 15.6463 11.7359 2.65235 0.543395
542 2 13.665 12.879 0.888983 1.39689
543 2 13.6902 13.1218 3.64095 1.87386
602 2 15.8119 8.64456 0.873041 1.52594
603 2 16.025 8.88568 3.42742 1.08467
613 2 15.8753 11.4783 0.0893992 1.7525
169 1 17.8446 10.3448 1.68889 1.60562
170 1 20.0154 11.8574 2.708 1.11425
614 2 17.8982 12.9591 0.77265 1.85002
615 2 17.9676 12.943 3.68772 2.21286
674 2 20.3123 9.06897 0.810073 2.34901
675 2 20.4492 9.14698 3.48213 2.69678
685 2 20.0225 11.9526 -0.2758 1.98557
241 1 22.4627 10.5549 1.87674 1.06656
242 1 24.7726 11.6456 2.87842 0.352476
686 2 22.4642 13.0633 1.0748 1.91589
687 2 22.1875 12.9166 3.7098 1.752
746 2 24.5475 9.18882 0.990107 2.15255
747 2 24.7192 9.15557 3.90713 1.63137
313 1 27.0045 10.3935 2.11998 0.990087
758 2 26.8807 13.042 0.956341 1.24162
759 2 27.0377 12.89 3.52255 1.91362
314 1 29.3236 11.6039 2.83835 0.317925
385 1 31.8241 10.412 2.029 1.32963
818 2 29.4224 9.19775 1.20696 2.21708
819 2 29.3344 9.10427 3.65906 1.68902
830 2 31.6434 12.86 0.999868 1.26491
831 2 31.4536 13.0549 3.69294 1.75605
386 1 33.9327 11.8264 2.87563 0.50169
459 2 33.8153 9.01994 3.78629 1.44743
469 2 33.8633 11.3281 0.0869147 1.43601
37 1 11.5054 14.1879 1.91166 1.4694
482 2 11.1796 16.8345 0.726449 1.69653
38 1 13.6931 15.7544 2.93414 1.25907
109 1 15.7758 14.3233 1.82138 0.493863
553 2 13.575 15.5253 0.271393 2.26394
554 2 15.5958 17.2847 0.746251 2.63117
555 2 15.9646 16.7777 3.60374 1.70647
110 1 18.105 15.4298 2.69022 1.31101
181 1 20.3201 14.4391 1.70744 0.40247
625 2 17.6604 15.3528 0.111194 2.61214
626 2 20.1491 16.9155 0.793636 1.42234
627 2 20.2049 16.9945 3.52635 2.01378
182 1 22.6566 15.5629 2.88175 1.19702
253 1 24.8841 14.2227 1.93283 1.64006
697 2 22.4443 15.7086 -0.206729 1.68342
698 2 24.7359 16.7588 1.10768 1.65066
699 2 24.6405 16.8202 3.95301 2.65128
254 1 26.9589 15.7563 2.61472 0.605573
325 1 29.2209 14.2443 1.97108 1.5862
326 1 31.4212 15.5887 2.57208 0.332137
770 2 29.5994 16.6314 0.950306 2.78166
771 2 29.1767 17.1498 3.60957 1.88114
397 1 33.7106 14.2651 1.78033 0.848505
398 1 36.0161 15.6263 2.76206 0.439957
481 2 35.7568 15.541 0.0852379 2.0129
842 2 33.84 16.9859 1.01384 2.02653
843 2 33.7862 17.0305 3.7778 1.85182
483 2 38.0465 17.1543 3.28055 3.58019
493 2 11.1755 19.4011 -0.117146 1.3002
49 1 13.301 18.2765 1.92125 1.25267
50 1 15.7715 19.5894 2.84228 0.716661
61 1 15.8821 22.0886 1.81257 0.425984
494 2 13.7474 21.2187 0.772782 3.35848
495 2 13.4234 20.7115 3.34422 2.96119
565 2 15.8427 19.6637 -0.0220609 2.09418
121 1 17.807 18.1567 1.69644 0.962985
122 1 20.1768 19.3772 2.59448 1.21275
133 1 20.3893 22.1822 1.88703 0.468938
566 2 18.2146 20.782 1.1731 2.32997
567 2 18.0695 20.8514 3.69087 1.43501
637 2 20.1986 19.5919 -0.0790567 1.18164
193 1 22.4703 18.1641 1.95627 1.09711
194 1 24.8805 19.4589 2.82562 1.26404
205 1 24.9759 22.0245 1.6226 0.468485
638 2 22.6398 20.7323 0.841975 1.43303
639 2 22.6216 20.6938 3.51832 2.43062
709 2 24.9068 19.5822 0.148973 1.68786
265 1 27.287 18.2251 1.73155 0.490392
710 2 27.1661 20.8365 0.935151 1.63258
711 2 27.1723 20.7545 3.7926 1.7494
266 1 29.3365 19.5975 2.6063 0.462478
277 1 29.3057 22.1047 1.60013 0.485305
337 1 31.6559 18.2168 1.80661 0.321215
782 2 31.7097 20.7301 0.951754 1.40895
783 2 31.6638 20.644 3.60305 2.67954
338 1 33.8596 19.5585 2.67483 0.316811
349 1 33.9014 22.0385 1.72815 0.492442
409 1 36.1097 18.1122 1.68625 0.476009
854 2 36.0552 20.8368 0.793289 1.62872
855 2 35.8738 20.9004 3.75615 2.12548
410 1 38.1495 19.6099 2.66221 0.504322
421 1 38.366 22.174 1.76356 0.332552
62 1 18.163 23.4521 2.76841 1.12122
134 1 22.57 23.1985 2.84522 0.960276
206 1 27.1613 23.2923 2.695 0.367696
278 1 31.6465 23.1991 2.73726 0.548697
350 1 35.8862 23.3781 2.69627 0.493266
422 1 40.5499 23.455 2.44227 0.508849
3 1 6.71162 3.80721 5.3672 0.416175
436 2 4.52032 2.56658 4.52531 1.3543
437 2 4.52197 2.33398 7.48156 1.96071
438 2 6.61758 3.90955 7.96531 2.5424
75 1 11.1429 3.88184 5.83999 1.51436
508 2 9.22702 2.37365 4.83931 1.84101
509 2 9.17777 2.72245 7.51334 2.14623
510 2 11.4382 4.07469 8.58113 2.7255
147 1 15.5148 3.9884 5.68671 1.51699
580 2 13.4912 2.58842 4.54827 1.99298
581 2 13.4749 2.64031 7.40555 1.46382
582 2 15.7734 4.01163 8.45069 1.73113
219 1 20.1122 3.81199 5.367 1.6304
652 2 17.7902 2.44272 4.70224 1.68316
653 2 17.6394 2.4678 7.32935 2.03625
654 2 19.9853 3.58237 7.97798 2.71413
291 1 24.7119 3.85632 5.32294 0.731209
724 2 22.1952 2.5617 4.58522 2.28172
725 2 22.3144 2.66224 7.45805 1.62562
726 2 24.5288 3.96887 8.21674 1.55126
796 2 27.2229 2.72115 4.05378 3.27936
797 2 26.7816 2.63225 6.95153 2.23805
363 1 29.1304 3.81139 5.37207 1.18542
798 2 29.3233 3.81532 8.1109 1.55062
448 2 6.69341 6.5084 4.67172 1.45122
449 2 6.57901 6.69259 7.34871 2.3904
4 1 8.77714 5.24596 6.47955 0.392187
15 1 9.00356 7.79095 5.52174 0.946082
450 2 8.63758 7.71944 8.11693 2.34613
520 2 11.3476 6.43377 4.62047 1.58926
521 2 11.0728 6.47456 7.40713 1.31064
76 1 13.3051 5.22188 6.61724 0.563582
87 1 13.4211 7.75817 5.53977 0.49513
522 2 13.5039 7.57138 8.28487 1.96976
592 2 15.7282 6.39187 4.54223 1.40637
593 2 15.6799 6.35035 7.15532 1.96974
148 1 17.9361 5.17425 6.29963 0.528989
159 1 18.2045 7.72433 5.55467 0.906694
594 2 18.0835 8.09479 8.21379 1.76237
664 2 20.3917 6.49727 4.5965 1.14769
665 2 20.3232 6.60883 7.25643 2.0002
220 1 22.5086 5.20692 6.18507 0.806248
231 1 22.6484 7.83669 5.49002 1.19264
666 2 22.4276 7.88785 8.13024 2.00635
736 2 24.8802 6.38731 4.36294 1.84206
737 2 24.8469 6.58463 7.26007 1.49671
292 1 26.8611 5.06977 6.37269 1.22755
303 1 27.0063 7.76775 5.6308 0.432265
738 2 27.1619 7.67226 8.37668 1.61259
364 1 31.5837 5.18883 6.44993 0.40479
375 1 31.5472 7.73502 5.69391 0.499801
808 2 29.1452 6.34567 4.56463 1.75035
809 2 29.4439 6.59255 7.31189 1.72396
810 2 31.4445 7.92268 8.56637 2.0633
16 1 11.1202 9.26073 6.50395 1.18535
27 1 11.3278 11.799 5.52458 1.26237
460 2 8.966 10.6295 4.62415 1.3771
462 2 11.3201 11.4898 8.32813 1.66836
28 1 13.6614 12.9568 6.43984 1.5283
88 1 15.7771 8.82935 6.30794 1.10079
99 1 15.5352 11.4272 5.50222 1.74364
532 2 13.47 10.1078 4.26388 2.56274
533 2 13.589 10.365 7.46585 2.29015
534 2 15.7057 11.7945 8.42734 1.5588
100 1 17.7163 12.8147 6.41204 0.497483
160 1 20.3873 9.14627 6.49897 0.472024
171 1 19.8673 11.5802 5.35269 0.478302
604 2 17.6887 10.2048 4.61639 2.43562
605 2 18.0109 10.4267 7.52163 1.74344
606 2 19.9238 11.7634 8.18093 2.13691
172 1 22.1581 12.9251 6.28421 0.453185
232 1 24.832 9.15001 6.56583 1.65848
243 1 24.4789 11.6568 5.61522 1.30955
676 2 22.1762 10.4015 4.70631 2.1834
677 2 22.5016 10.4445 7.56439 1.90424
678 2 24.8926 11.5831 8.48554 2.39826
244 1 26.7998 13.114 6.37623 1.21368
748 2 27.0684 10.5821 4.6342 1.58876
749 2 27.189 10.2126 7.43091 2.47504
304 1 29.3604 9.14864 6.45913 0.404264
315 1 29.27 11.8046 5.47464 0.546431
316 1 31.5173 13.1769 6.27884 0.487999
750 2 29.2255 11.7882 8.16387 1.35068
820 2 31.3024 10.4765 4.60166 1.50094
821 2 31.4289 10.4682 7.37756 1.1759
376 1 33.5853 9.33474 6.50809 1.34797
387 1 33.6734 11.9016 5.69259 0.410658
388 1 36.0597 13.1292 6.30873 1.07915
461 2 36.2942 10.628 7.31118 2.28271
822 2 33.8151 11.5935 8.26946 1.08317
472 2 11.2382 14.4606 4.60737 2.51042
39 1 13.6509 15.5585 5.63848 0.994082
40 1 15.9736 17.107 6.49967 1.47075
474 2 13.5272 15.6269 8.50294 1.76283
544 2 16.0294 14.0612 4.61669 2.59103
545 2 15.7171 14.5473 7.38309 2.59922
111 1 17.9549 15.4628 5.46529 0.557527
112 1 20.3075 16.8358 6.34861 1.27684
546 2 18.2191 15.855 8.31662 2.5152
616 2 20.1222 14.3427 4.45366 1.58027
617 2 19.9498 14.2773 7.01355 2.74579
183 1 22.546 15.4061 5.55827 0.497586
184 1 24.7423 16.7706 6.5625 0.557982
618 2 22.4448 15.3373 8.21742 2.27939
688 2 24.4372 14.0091 4.50617 2.2507
689 2 24.4762 14.098 7.16961 2.53029
255 1 26.8748 15.5251 5.26932 0.703104
690 2 26.822 15.7051 8.05809 1.86026
256 1 28.9477 16.6183 6.2585 1.68222
327 1 31.3939 15.579 5.37299 0.429283
760 2 29.1681 14.3915 4.75621 1.71266
761 2 29.0185 14.1155 7.32698 1.66361
762 2 31.5498 15.6374 8.0165 1.80391
328 1 33.4786 16.9392 6.36523 1.23983
399 1 35.854 15.6766 5.4082 0.482522
832 2 33.7819 14.503 4.55732 1.67753
833 2 33.7597 14.3 7.27594 1.08469
834 2 35.9559 15.5513 8.1312 1.33758
400 1 38.2978 16.6887 6.29705 0.443731
473 2 38.3645 14.3997 7.6603 2.67944
51 1 15.8795 19.6401 5.62648 1.13643
484 2 13.6423 18.0536 4.66033 2.28011
486 2 15.6607 19.3835 8.22531 1.51368
496 2 15.7857 22.1074 4.51665 1.27086
52 1 18.1394 20.7347 6.52889 0.65857
123 1 20.1197 19.4562 5.50055 0.592116
556 2 17.9728 18.3087 4.57105 1.41294
557 2 18.0587 18.2615 7.14903 2.13484
558 2 20.1764 19.614 7.98634 2.49304
568 2 20.2767 21.8255 4.79019 2.23719
569 2 20.2099 22.0392 7.39126 2.00309
124 1 22.3485 20.7552 6.57261 0.377967
195 1 24.5087 19.5133 5.6054 0.57343
628 2 22.7142 17.8452 4.95386 3.9222
629 2 22.5183 18.1477 7.22616 1.93946
630 2 24.6819 19.414 8.26588 1.31377
640 2 24.826 21.8406 4.45126 1.92066
641 2 24.4998 21.9533 7.37643 1.7867
196 1 26.8743 20.6984 6.55676 0.938023
700 2 26.7427 18.1752 4.45873 1.53085
701 2 27.219 18.0894 7.52225 2.47899
267 1 29.0335 19.5234 5.47618 1.36378
268 1 31.3864 20.7065 6.28401 0.863123
702 2 28.8778 19.3144 8.5376 3.54023
712 2 29.3554 21.779 4.29752 2.67387
713 2 29.1838 22.1405 7.30484 1.77941
772 2 31.2573 18.1547 4.54973 1.67556
773 2 30.9955 18.2217 7.33751 2.677
339 1 33.7244 19.3794 5.33393 0.425905
340 1 35.9437 20.5963 6.38604 1.05879
774 2 33.3796 19.2819 8.05805 2.07361
784 2 33.5905 22.0749 4.35057 2.4464
785 2 33.5865 21.696 7.07361 2.70264
844 2 36.1696 18.1001 4.45345 1.71725
845 2 35.8674 18.188 7.02413 1.86221
411 1 38.215 19.3731 5.38779 0.455719
412 1 40.358 20.9074 6.31974 0.955101
485 2 40.2268 18.1859 7.1671 2.11173
846 2 38.2542 19.4382 8.18544 1.28271
856 2 38.0563 22.0203 4.66088 1.69811
857 2 38.1699 22.1098 7.23084 2.18525
497 2 42.6614 22.0081 7.31175 1.93693
63 1 18.1624 23.3109 5.53118 0.394795
64 1 20.3056 24.5998 6.30459 0.341778
498 2 18.2523 23.2182 8.33483 1.52494
135 1 22.5289 23.3152 5.61142 1.11638
136 1 24.8728 24.6114 6.23792 1.66189
570 2 22.3817 23.5203 8.44845 1.66935
207 1 27.0384 23.2331 5.34804 0.501819
642 2 26.867 23.3541 8.1449 1.90844
208 1 29.0779 24.5797 6.21049 1.13243
279 1 31.521 23.2816 5.46561 0.289535
714 2 31.3158 23.4674 8.25877 1.78593
280 1 33.5672 24.7145 6.45069 0.480253
351 1 35.7011 23.3123 5.30462 0.51117
786 2 35.9242 23.3074 7.92718 1.64076
352 1 37.9743 24.525 6.23141 1.14685
423 1 40.493 23.4177 5.29504 0.834128
858 2 40.4322 23.432 7.9419 1.7227
424 1 42.8885 24.5096 6.30152 0.994193
439 2 6.56946 3.93358 11.0772 1.62365
511 2 11.1482 3.92896 11.0986 1.81056
583 2 15.9432 3.85791 11.2326 1.99099
655 2 20.2917 3.97427 10.5472 2.9762
727 2 25.2332 3.84175 10.7399 3.59647
799 2 29.1025 3.81052 11.0811 2.3099
5 1 8.97092 5.19911 9.12437 1.25457
6 1 11.3832 6.47073 10.1354 1.01046
7 1 11.2944 6.37592 12.9769 0.906545
440 2 9.05293 5.07457 12.2974 3.30566
451 2 9.10082 7.76007 10.888 2.26423
77 1 13.6415 5.2413 9.36001 0.605924
78 1 15.974 6.5159 9.98735 1.10199
79 1 15.8846 6.30347 12.7137 1.26875
512 2 13.5032 4.93163 12.0235 1.79285
523 2 13.6362 7.48833 11.3346 1.41087
149 1 18.2055 5.21526 9.0381 1.32835
150 1 20.2733 6.71939 10.1116 1.16891
151 1 20.2302 6.5645 12.9126 1.17235
584 2 18.1751 5.03122 11.8038 2.02472
595 2 17.9016 7.94885 11.0508 2.2688
221 1 22.2166 5.10569 8.93056 1.93709
222 1 24.5269 6.50177 9.93387 1.37307
223 1 24.542 6.32228 12.7706 1.08852
656 2 22.5161 5.5174 11.5477 2.98521
667 2 22.7909 7.86125 10.8915 2.66875
293 1 27.0508 5.08794 9.13799 1.2078
728 2 27.0606 5.16634 12.0794 2.21441
739 2 26.9771 8.04343 11.066 2.38586
294 1 29.2054 6.69677 10.0933 1.04362
295 1 29.2013 6.62108 12.8974 0.439654
365 1 31.5848 5.19908 9.14902 0.872542
800 2 31.4728 4.93042 11.957 2.75573
811 2 31.4457 7.52181 11.0963 1.71334
366 1 33.6845 6.6289 10.0514 0.464038
367 1 33.8266 6.42088 12.6524 0.404732
17 1 11.2265 8.97487 9.20889 0.499234
452 2 11.1622 9.25032 11.8218 1.74777
463 2 11.1312 11.6507 11.1917 2.40746
18 1 13.3303 10.2354 10.2037 1.16795
19 1 13.3727 10.3908 12.961 1.01702
29 1 13.2023 12.9207 9.3317 1.22476
89 1 15.7985 9.19334 9.17759 0.849275
464 2 13.337 13.0367 12.0089 1.52832
524 2 15.3441 9.16949 11.8547 2.30033
535 2 15.6662 11.8185 11.0606 1.1979
90 1 17.9445 10.5386 10.0736 1.15706
91 1 17.8316 10.3225 12.9193 1.24815
101 1 17.7571 13.0811 9.09126 0.438616
161 1 20.5103 9.30262 9.17407 1.22504
536 2 17.9327 12.8787 11.9365 1.61047
596 2 20.4882 9.08755 12.0455 1.3366
607 2 20.0098 11.7864 10.9523 1.27468
162 1 22.7239 10.5765 10.2222 0.414838
163 1 22.5382 10.5421 12.9923 0.653879
173 1 22.4185 12.9629 8.91825 0.502015
233 1 24.7526 9.13189 9.24351 0.361581
608 2 22.4835 13.0016 11.5578 2.4294
668 2 24.8104 9.16231 11.9681 1.23867
679 2 24.7358 11.6955 11.4083 3.05599
234 1 26.9218 10.6184 10.0518 1.5259
235 1 27.0312 10.2919 12.8435 0.555548
245 1 27.0524 13.2413 9.15323 0.532314
680 2 26.9022 12.84 11.7535 2.16065
305 1 29.2432 9.24655 9.19251 0.382529
306 1 31.574 10.4155 10.0423 0.461673
307 1 31.6429 10.3104 12.698 1.30135
317 1 31.4705 13.0106 9.12344 0.978774
740 2 29.4592 9.02985 11.9732 1.61253
751 2 29.2086 11.7675 11.1751 1.66026
752 2 31.4394 12.9544 11.7982 1.52315
377 1 33.8335 9.05153 9.25314 1.12397
378 1 36.1325 10.5506 10.1545 1.29246
379 1 36.0846 10.4175 12.9096 0.378373
389 1 36.0535 13.0647 9.10459 0.357686
812 2 33.694 9.02506 12.1635 1.91754
823 2 33.8772 11.7015 11.0257 1.58378
824 2 36.0112 13.1165 11.7687 1.57154
30 1 15.4867 14.1638 10.0455 0.454049
31 1 15.7045 14.4124 12.6638 0.473346
41 1 15.806 16.8464 9.23481 0.297979
476 2 15.6552 16.8714 12.1667 2.31297
102 1 20.2812 14.3453 9.90626 0.599154
103 1 20.0658 14.1724 12.7249 0.999682
113 1 20.5155 16.9605 9.17716 1.52153
547 2 17.8807 15.3701 10.8905 1.84806
548 2 20.1632 16.5711 11.8211 2.37777
174 1 24.6971 14.2414 9.96455 0.539822
175 1 24.7208 14.2532 12.81 1.37984
185 1 24.7213 16.8371 9.1712 1.14856
619 2 22.4576 15.565 10.7482 1.43583
620 2 24.7502 16.9813 12.2395 3.08528
691 2 26.8749 15.5208 10.8675 1.99596
246 1 29.261 14.2295 10.0653 0.322792
247 1 29.2328 14.1922 12.9177 1.16504
257 1 29.0969 16.8097 9.09965 0.448291
692 2 29.1284 16.7655 12.052 2.39688
763 2 31.5233 15.6339 10.7628 1.60599
318 1 33.7331 14.1672 10.019 0.829704
319 1 33.7714 14.2914 12.8551 0.571838
329 1 33.6429 16.8517 9.34939 1.17528
764 2 33.6594 16.7894 12.0013 1.44233
835 2 35.9746 15.5306 10.9589 1.52074
390 1 38.1875 14.3666 10.1958 0.394389
391 1 38.1299 14.2108 12.9746 0.416866
401 1 38.2268 16.8904 8.96704 0.42286
475 2 40.3561 15.8077 10.991 1.78951
836 2 38.1234 16.8265 11.8045 1.6587
42 1 18.0209 18.0604 10.1634 0.999973
43 1 18.055 18.2073 12.7942 0.608862
53 1 18.064 20.6998 9.16868 0.972005
54 1 20.1946 22.2038 10.3374 0.952341
55 1 20.1194 22.0181 12.9783 0.918229
488 2 17.9524 20.8218 11.8587 1.81788
559 2 20.2225 19.5976 11.074 1.98654
114 1 22.5282 18.363 9.92181 1.63406
115 1 22.5139 18.0572 12.6875 1.50391
125 1 22.4306 20.9931 9.30021 0.571037
126 1 24.6551 22.1916 10.0623 0.412188
127 1 24.5339 21.9654 12.8295 1.2403
560 2 22.4915 20.8172 12.067 1.42519
631 2 24.8522 19.8521 10.9104 3.45456
186 1 27.0317 18.1638 10.204 0.425447
187 1 27.1582 18.2562 12.8055 0.448173
197 1 26.8597 20.9474 9.36912 1.47342
632 2 27.0323 20.9323 12.1291 2.35292
198 1 29.4262 21.9455 10.1531 0.876717
199 1 29.4468 21.9156 12.8114 0.433183
258 1 31.3333 18.2196 10.0713 0.499092
259 1 31.2294 18.0564 12.6516 0.625744
269 1 31.3973 20.6091 9.00907 0.456995
703 2 28.9881 19.4704 11.1347 2.51225
704 2 31.5628 20.6966 11.6576 2.23055
270 1 33.5965 21.9333 10.1185 0.510603
271 1 33.7171 21.943 12.8253 1.0887
330 1 35.9634 18.0327 9.94082 0.889669
331 1 36.1458 18.261 12.8061 0.920053
341 1 35.7469 20.768 9.14659 0.433655
775 2 33.7473 19.2271 10.9416 1.33008
776 2 36.0685 20.9093 11.847 1.92221
342 1 38.0066 22.0093 10.0858 1.29238
343 1 38.4513 22.1803 12.8226 1.52931
402 1 40.4848 18.2478 9.80136 1.07313
403 1 40.4766 18.1157 12.686 1.25394
413 1 40.4173 20.9567 9.00046 1.11758
847 2 37.9175 19.451 10.8881 2.1264
848 2 40.4052 20.535 11.6342 1.50422
414 1 42.8045 21.9353 10.2099 1.38883
415 1 42.6985 21.8821 13.0633 1.42194
487 2 42.9081 19.2205 11.2003 2.22353
65 1 20.3206 24.9129 9.11245 1.05294
500 2 20.3783 24.7165 11.9666 1.64111
66 1 22.6224 25.9773 10.0482 0.486563
67 1 22.447 25.8771 12.7351 0.598517
137 1 24.8358 24.8648 8.9385 1.36431
571 2 22.486 23.7163 11.1536 2.70789
572 2 24.805 24.5473 12.0451 2.01951
138 1 27.153 25.9361 10.0614 1.32331
139 1 27.0532 25.7471 13.0041 1.13505
643 2 27.1987 23.3388 10.9994 1.42599
209 1 29.3606 24.8144 9.1182 1.06596
210 1 31.4919 26.0253 10.0816 0.548706
211 1 31.5008 25.9894 12.7559 1.01399
644 2 29.2523 24.7713 11.9025 1.85255
715 2 31.6063 23.4969 10.8895 1.57231
281 1 33.7488 24.5589 9.28943 1.17852
282 1 36.0006 26.1036 10.0723 0.867205
283 1 36.1397 26.115 12.8696 1.26848
716 2 33.916 24.6227 11.932 1.72989
787 2 35.805 23.2843 10.7547 1.96735
353 1 38.0806 24.6396 8.99598 1.09631
354 1 40.5725 25.7996 9.89722 1.53104
355 1 40.6148 26.0856 12.6064 0.61255
788 2 38.2736 24.779 11.872 2.00666
859 2 40.3129 23.3341 11.0517 2.14121
425 1 42.9394 24.5331 9.17163 1.23891
426 1 45.0807 26.0113 10.144 0.505521
427 1 44.9424 25.9222 12.9814 0.882499
499 2 45.1095 23.6455 11.2089 1.90964
860 2 42.7408 24.4611 11.9773 1.79254
441 2 8.64823 5.3767 14.8309 2.1919
442 2 11.1143 6.65827 15.5151 1.38972
8 1 13.5738 7.68578 13.9982 1.55225
9 1 13.5761 7.69768 16.7954 1.24357
513 2 13.4051 5.12116 14.6508 1.55702
514 2 15.5365 6.41933 15.3498 2.48663
80 1 17.823 7.65616 13.8155 1.59968
81 1 17.9391 7.85497 16.5379 1.07163
585 2 18.0521 5.27303 14.8016 2.14981
586 2 20.3809 6.44773 15.7414 1.59298
152 1 22.5306 7.8319 13.7832 0.921964
153 1 22.3869 7.77563 16.798 0.495414
657 2 22.5058 5.19644 14.3553 2.67854
658 2 24.5877 6.30947 15.5291 1.7331
224 1 26.8428 7.88847 13.6366 1.07158
225 1 26.9736 7.5161 16.5261 1.52661
729 2 27.1282 5.12744 14.5485 2.0821
296 1 31.5131 7.75541 13.8312 0.448789
297 1 31.51 8.03666 16.4721 0.475502
730 2 29.1953 6.30353 15.5814 1.74522
801 2 31.4982 4.93877 14.7036 2.20382
368 1 35.9267 7.80988 13.7957 1.20877
369 1 35.891 7.83295 16.6416 0.393272
802 2 33.3331 6.65692 15.5431 2.87092
453 2 10.9608 9.3216 14.5404 2.68413
10 1 15.7278 9.15164 17.4987 0.407403
20 1 15.5491 11.784 13.7553 1.08872
21 1 15.7345 11.6137 16.4912 0.394012
454 2 13.3897 10.1301 15.6478 1.91606
525 2 15.8824 9.27014 14.9885 2.69226
22 1 17.7901 13.0434 17.5155 0.430743
82 1 20.3425 9.1416 17.4991 0.406807
92 1 20.2082 11.5419 13.8882 1.1682
93 1 20.0913 11.7087 16.7461 1.32155
526 2 18.0498 10.4702 15.598 1.80053
537 2 17.7739 13.1295 14.8239 1.80912
597 2 20.0715 8.87498 14.7335 1.68653
94 1 22.5079 13.118 17.3435 0.589314
154 1 24.7583 9.00898 17.5907 0.403333
164 1 24.9545 11.654 14.0724 1.71033
165 1 24.5983 11.4895 16.7039 0.442682
598 2 22.3419 10.3365 15.7354 2.62541
609 2 22.5357 12.7971 14.3948 2.53888
669 2 24.4481 9.25881 14.9003 2.53247
166 1 27.055 12.8065 17.1835 0.624577
670 2 27.139 10.2573 15.5183 2.32636
681 2 27.3323 13.1277 14.362 3.67997
226 1 29.1187 9.17056 17.3131 0.431529
236 1 29.3007 11.4928 13.7463 1.49333
237 1 29.3163 11.7549 16.4572 0.49153
238 1 31.4372 13.0832 17.3986 0.564161
741 2 29.2399 9.02293 14.5476 1.45704
742 2 31.5714 10.4183 15.4618 1.60356
753 2 31.5834 13.2157 14.4818 2.31121
298 1 33.7389 9.27075 17.585 0.461457
308 1 33.6268 11.6889 13.9322 0.397561
309 1 33.622 11.7261 16.5023 0.462037
310 1 36.1581 12.8812 17.3302 1.19919
813 2 33.9311 9.11455 14.8668 1.92893
814 2 35.9299 10.6544 15.5745 1.74761
825 2 35.7752 13.1114 14.6767 1.70151
370 1 38.0418 9.02474 17.3568 0.954616
380 1 38.1026 11.709 13.696 0.707609
381 1 38.2722 11.6173 16.3388 0.493024
382 1 40.5612 13.0202 17.223 1.60031
465 2 40.555 13.1765 14.6377 1.69774
466 2 15.7651 14.2762 16.0055 2.31607
32 1 17.983 15.5099 13.7483 0.758903
33 1 17.9135 15.5703 16.6351 0.882646
34 1 20.2243 16.863 17.4393 0.348878
538 2 20.5017 14.0957 15.4617 2.1748
549 2 20.2425 16.7732 14.8949 1.54395
104 1 22.2812 15.4181 13.537 0.566383
105 1 22.354 15.6522 16.3606 0.593891
106 1 24.5014 16.7714 17.5211 1.14957
610 2 24.646 14.1344 15.562 2.34921
621 2 24.5642 16.8509 14.5667 2.00834
176 1 27.0397 15.7566 13.8021 1.00946
177 1 26.8334 15.5771 16.6391 1.05263
178 1 29.2331 16.8132 17.4596 0.869517
248 1 31.3854 15.5783 13.458 0.585247
249 1 31.5936 15.7284 16.2924 1.44912
682 2 29.4006 14.4291 15.7384 1.91022
693 2 29.2316 17.0338 14.6648 1.52168
250 1 33.9765 16.9249 17.2543 1.37764
320 1 36.0287 15.683 13.7276 0.337859
321 1 36.1472 15.5174 16.4735 0.417995
754 2 33.8349 14.0515 15.6419 2.03255
765 2 33.4787 16.6663 14.6446 2.4259
322 1 38.3512 16.7924 17.3731 1.12386
392 1 40.5619 15.5906 13.7593 1.33033
393 1 40.5789 15.5689 16.5402 0.381039
826 2 38.2555 14.1606 15.67 1.30339
837 2 38.2699 16.8322 14.6113 1.24844
394 1 42.6954 16.8581 17.7973 1.33484
477 2 42.6574 16.6159 14.801 1.72888
44 1 20.2258 19.4477 13.74 1.05773
45 1 20.2163 19.5619 16.512 0.840113
478 2 18.1976 18.1892 15.3819 2.63707
490 2 20.4724 22.3159 15.8104 2.63195
46 1 22.5128 20.8669 17.4024 0.384258
116 1 24.6211 19.3112 13.8815 1.02928
117 1 24.5683 19.4901 16.4748 0.980311
550 2 22.5051 18.1293 15.4759 1.6279
561 2 22.3425 20.8215 14.7677 1.40264
562 2 24.6302 22.2984 15.6486 1.33628
118 1 26.9483 20.7886 17.4611 1.07937
622 2 26.9888 17.9319 15.6248 1.54757
633 2 26.8423 20.5267 14.6234 2.06989
188 1 29.2489 19.5374 13.8862 0.483339
189 1 29.2403 19.4756 16.68 0.825338
190 1 31.5402 20.8517 17.4065 0.40787
634 2 29.2518 22.0329 15.6191 1.30722
694 2 31.5365 18.4959 15.1931 3.3113
705 2 31.6336 20.9419 14.7091 1.6184
260 1 33.8067 19.2254 13.6891 1.61713
261 1 33.8318 19.6098 16.5093 0.980728
262 1 35.9376 20.9752 17.6278 0.588483
706 2 33.6297 22.3449 15.7701 1.97657
766 2 36.0088 18.1214 15.558 2.10972
777 2 35.9241 20.7417 14.6985 2.05053
332 1 38.1849 19.7035 13.8572 1.11982
333 1 38.0527 19.336 16.564 1.16319
334 1 40.4594 20.8358 17.4267 1.30096
778 2 38.2434 22.0104 15.7163 1.36451
838 2 40.4158 18.2866 15.6839 2.03876
849 2 40.3618 20.9734 14.7942 1.91804
404 1 42.7887 19.1118 13.8137 1.30589
405 1 42.7738 19.3621 16.6991 0.968303
406 1 44.9234 20.6662 17.555 0.56242
489 2 44.9994 20.7021 14.5946 1.88928
850 2 42.6842 21.7756 15.6408 1.53638
56 1 22.3574 23.4466 14.0047 0.626785
57 1 22.4521 23.5355 16.7808 0.697157
58 1 24.7184 24.9442 17.2363 0.60333
502 2 22.491 25.9637 15.7961 1.8116
573 2 24.6792 24.7418 14.4808 1.75425
128 1 26.9451 23.0851 13.6542 1.60711
129 1 26.8535 23.3377 16.473 1.01065
574 2 26.7793 26.1042 15.7276 2.51047
130 1 29.1268 24.6887 17.4718 0.634437
200 1 31.6504 23.3882 13.7884 0.719352
201 1 31.3096 23.5002 16.5789 0.561513
645 2 29.2713 24.4458 14.6134 2.20604
646 2 31.5036 26.0083 15.459 1.24157
202 1 33.7347 24.7853 17.5345 1.20456
272 1 36.0091 23.2628 13.5453 1.454
273 1 36.0686 23.3855 16.5302 1.01343
717 2 33.8256 24.7965 14.8775 2.31612
718 2 35.7538 26.3845 15.3786 3.56527
274 1 38.2224 24.8261 17.6053 1.27706
344 1 40.673 23.4606 13.7671 0.92807
345 1 40.4492 23.5805 16.614 1.17572
789 2 38.0304 24.8296 14.708 2.95219
790 2 40.7366 25.8357 15.6353 1.46132
346 1 42.9334 24.6331 17.5825 1.23943
416 1 44.8289 23.2648 13.9143 0.363014
417 1 45.0271 23.1329 16.5827 1.58783
861 2 42.9165 24.7885 14.8052 1.30377
862 2 45.137 25.7701 15.5824 3.11905
418 1 47.1797 24.7914 17.4217 0.318829
501 2 47.2857 25.0197 14.7566 2.01517
68 1 24.7148 27.2484 13.7573 0.366299
69 1 24.6111 27.448 16.4149 0.524359
70 1 26.8627 28.5008 17.4602 0.473271
140 1 29.2956 27.1912 13.9178 0.881947
141 1 29.2516 27.5278 16.5557 1.30836
142 1 31.5232 28.8064 17.3639 0.523941
212 1 33.8773 27.4381 13.6715 0.460397
213 1 33.5045 27.3419 16.3404 1.9194
214 1 35.9944 28.5191 17.3836 1.39111
284 1 38.3836 27.0616 13.681 0.516218
285 1 38.2663 27.1131 16.5082 1.17275
286 1 40.6486 28.3038 17.3739 0.606291
356 1 42.7291 27.447 13.8207 0.557957
357 1 43.0423 27.1822 16.6311 0.670941
358 1 45.2134 28.906 17.4904 1.55635
428 1 47.3187 27.427 13.6296 0.65462
429 1 47.2073 27.4051 16.4768 0.506876
430 1 49.5292 28.7086 17.5894 1.26029
443 2 11.4009 6.64223 18.2179 1.67588
444 2 13.6918 7.97518 19.455 2.32179
515 2 15.5699 6.56531 18.4959 2.08408
516 2 17.9687 7.61852 19.2263 2.87512
587 2 20.4166 6.60408 18.5402 1.82295
588 2 22.6595 7.80877 19.3222 1.91433
659 2 24.783 6.35058 18.4027 1.36526
660 2 26.8454 7.87467 19.3743 2.03776
721 2 31.5818 7.58724 22.046 1.71572
731 2 29.0161 6.42494 18.2134 2.34441
732 2 31.5678 7.89974 19.0715 2.24257
793 2 36.1291 7.87554 22.0181 1.11105
803 2 33.8506 6.6678 18.1748 2.09338
804 2 35.9928 7.79642 19.2535 1.35875
11 1 15.8957 9.17732 20.2454 0.507885
455 2 13.212 10.4553 18.1859 1.82077
456 2 15.6527 11.455 19.2685 2.30202
12 1 18.1146 10.251 21.1248 0.693298
23 1 17.8157 12.8998 20.3149 1.09391
83 1 20.3669 9.04023 20.2958 0.412794
527 2 17.7803 10.4735 18.3345 1.69224
528 2 20.1046 11.6826 19.2747 1.35701
84 1 22.414 10.4271 21.3692 1.14019
95 1 22.3083 12.959 20.0981 1.53964
155 1 24.8325 9.18057 20.2665 1.40312
599 2 22.4093 10.3961 18.0741 2.33386
600 2 24.3462 11.7912 19.266 2.72234
156 1 27.0849 10.3253 21.0652 1.14939
167 1 27.0761 12.9378 19.9033 1.67197
671 2 26.9469 10.3277 18.3134 1.94121
227 1 29.3381 8.81322 19.8475 0.746897
228 1 31.4455 10.0854 21.1894 1.15251
239 1 31.3072 12.6677 20.2022 1.21775
672 2 29.0839 11.4829 19.4134 1.76234
743 2 31.3174 10.6407 17.8867 3.50245
299 1 33.8825 9.0886 20.3448 0.31412
300 1 36.0483 10.3453 21.2695 0.430773
311 1 35.8844 12.8745 20.1669 0.421156
733 2 33.6924 11.4382 21.8031 2.05281
744 2 33.459 11.4249 19.2637 2.51993
815 2 35.8811 10.3921 18.5283 1.39639
371 1 38.3444 9.22047 20.1146 0.522738
372 1 40.7157 10.3567 20.797 0.72582
383 1 40.4075 12.8517 19.9944 1.33539
805 2 38.5148 11.6797 21.773 1.8842
816 2 38.069 11.7057 19.185 1.80958
24 1 20.0858 14.1178 21.1512 0.406704
35 1 20.4047 16.7468 20.1414 0.881439
468 2 18.0146 15.3186 19.2613 2.28593
539 2 20.1098 14.2568 18.2414 1.46256
96 1 24.6678 14.0302 21.0836 1.11764
107 1 24.7997 16.6679 20.3459 0.55684
540 2 22.312 15.4566 18.865 3.23189
611 2 24.8942 14.157 18.3188 2.14397
612 2 27.0213 15.5142 19.2407 1.81299
168 1 29.2278 14.1154 21.0689 0.585421
179 1 29.4482 16.7627 20.1631 1.41221
683 2 29.049 14.0965 18.3358 1.83433
684 2 31.4491 15.2699 19.1227 1.282
240 1 33.6803 14.0539 21.0956 0.841971
251 1 33.6975 16.8425 20.1477 1.1998
745 2 36.2109 15.6047 21.8208 2.37627
755 2 33.8829 14.3163 18.3545 1.52979
756 2 36.1385 15.5085 19.4315 2.20717
312 1 38.1251 14.2145 21.0406 0.580787
323 1 38.1989 16.8544 20.2557 1.25223
817 2 40.5556 15.8634 22.5538 3.32276
827 2 38.4107 14.3925 18.4982 1.6034
828 2 40.5306 15.825 19.769 1.66035
384 1 42.6851 14.1239 21.2519 1.26307
395 1 42.9529 16.7029 20.5663 1.71066
467 2 42.4538 14.0989 18.4815 2.11769
480 2 20.1027 19.3943 19.3732 1.72865
36 1 22.5754 17.8182 21.1904 1.24112
47 1 22.545 20.5913 20.3225 0.740231
48 1 24.7442 22.0588 21.0482 0.95022
551 2 22.4713 18.2261 18.4036 1.44483
552 2 24.8129 19.1352 19.2712 1.97254
563 2 24.6724 22.2372 18.253 1.49391
108 1 27.0206 17.9571 20.8311 1.34572
119 1 26.9036 20.639 20.228 1.70703
623 2 26.9046 17.9845 18.2438 1.52783
120 1 29.1352 21.8466 21.0552 1.13465
180 1 31.5813 18.3702 20.8947 1.43006
191 1 31.3197 20.9656 20.1266 0.493411
624 2 29.3583 19.2907 19.4371 2.29938
635 2 29.3853 22.2136 18.0291 2.6126
695 2 31.4833 18.2234 18.0505 2.41416
192 1 33.5872 22.4239 21.1451 0.594595
252 1 35.9251 18.2788 21.1218 0.511718
263 1 35.8083 20.9475 20.3724 0.631692
696 2 34.052 19.4803 19.1836 2.17633
707 2 33.8418 22.1654 18.4039 1.47774
767 2 36.0586 17.9737 18.469 1.50869
264 1 38.1963 22.1419 21.2936 0.654813
324 1 40.5938 18.1681 21.2711 1.33668
335 1 40.5715 20.6885 20.2203 1.27277
757 2 38.4296 19.5508 22.1605 1.72761
768 2 37.9794 19.7229 19.7058 1.53196
779 2 38.0803 21.9705 18.3747 2.60919
839 2 40.2425 18.4499 18.3772 2.61517
336 1 42.7076 22.167 21.3939 1.72131
396 1 45.1552 18.1308 21.2162 0.507919
407 1 44.9194 20.6545 20.1995 0.484441
479 2 44.9847 18.2167 18.4912 1.35763
829 2 43.06 19.5839 21.8925 2.72965
840 2 42.7317 19.243 19.4133 2.47668
851 2 42.653 21.684 18.5135 2.34372
408 1 47.2888 21.7761 21.0148 1.18037
491 2 47.2048 21.9794 18.4523 1.18947
59 1 24.7769 24.7557 20.0703 0.896437
492 2 22.3986 23.2271 19.4694 2.39696
503 2 22.6044 25.6491 18.3502 3.62731
60 1 27.0308 26.0687 21.3168 1.35159
564 2 26.8447 23.0429 19.1214 2.99915
575 2 26.9853 25.9793 18.5038 2.23694
131 1 29.1314 24.6052 20.1129 0.984279
132 1 31.4196 25.8174 21.0039 0.409579
636 2 31.4317 23.4883 19.2467 1.60423
647 2 30.9929 25.9462 18.2976 2.61127
203 1 33.8739 24.7948 20.187 0.452238
204 1 36.0381 26.1101 21.2775 0.610007
708 2 36.393 23.5069 19.2533 3.3961
719 2 36.1271 25.9268 18.8382 3.54826
275 1 38.273 24.7977 20.5303 0.726695
276 1 40.6796 25.9567 21.1109 1.34258
769 2 40.5238 23.6025 21.8364 2.14416
780 2 40.1595 23.2872 19.172 2.19921
791 2 40.7225 25.8616 18.3833 1.58099
347 1 42.8655 24.6988 20.226 0.475742
348 1 45.0583 26.1129 21.196 1.08937
841 2 45.2862 23.4728 21.9556 1.7373
852 2 45.0006 23.442 19.2305 2.28679
863 2 45.0398 26.3146 18.3759 1.82484
419 1 47.3576 24.6986 20.0917 1.01055
420 1 49.5906 25.8918 20.9117 0.47193
504 2 24.7074 27.3268 19.2845 1.48685
71 1 27.0499 28.756 20.0398 1.12051
72 1 29.2767 29.8456 21.1432 0.567077
143 1 31.399 28.3603 20.0426 1.28913
576 2 29.1979 27.2298 19.4267 1.88733
144 1 33.5728 29.9574 21.2378 1.5713
215 1 35.8489 28.4908 20.3185 0.965276
648 2 33.586 27.3725 19.0883 1.99324
216 1 38.2495 29.8668 21.1115 0.375085
287 1 40.4499 28.6044 19.9958 0.450047
720 2 38.4402 27.0808 19.243 1.78187
288 1 42.8354 29.816 20.9073 0.441371
359 1 45.0953 28.5732 20.3213 0.361986
781 2 42.6815 27.5194 22.0445 1.80098
792 2 42.7441 27.3822 19.5893 2.31121
360 1 47.3735 29.8785 21.0882 0.389449
431 1 49.5735 28.4949 20.25 0.443085
853 2 47.2953 27.2524 21.8386 1.29543
864 2 47.2946 27.617 19.2013 1.8005
432 1 51.7222 29.9053 21.1327 0.929541
ITEM: TIMESTEP
100
ITEM: NUMBER OF ATOMS
864
ITEM: BOX BOUNDS xy xz yz pp pp pp
-5.8313742662160183e-02 5.4102931657202802e+01 1.3544857684384105e+01
-5.8367085071015887e-02 3.1222130396234196e+01 1.3544837870498554e+01
-5.5012837565921298e-02 2.2063614783398950e+01 7.8201157906621788e+00
ITEM: ATOMS id type x y z f_grace_gamma
433 2 -0.0978292 0.237846 -0.257051 2.39256
434 2 2.2207 1.13192 0.878626 1.75168
435 2 2.62425 1.133 3.91045 3.09742
445 2 2.47148 3.64442 -0.108221 2.3915
1 1 4.30948 2.46193 1.79217 0.467485
2 1 6.69161 3.7375 2.74617 1.16134
505 2 4.27576 -0.194234 -0.199326 1.76481
506 2 6.73545 1.33037 1 2.30685
507 2 6.88008 1.23194 3.77311 1.9048
517 2 6.43827 3.99254 0.0529916 2.19734
73 1 9.21271 2.45849 2.0041 1.30565
74 1 11.2718 3.65745 3.02404 1.55953
577 2 8.99469 -0.207635 -0.032491 1.92312
578 2 11.1903 0.854545 0.970488 2.33612
579 2 11.4176 0.954379 3.80338 2.21956
589 2 11.3488 3.47431 0.368893 3.24681
145 1 13.6735 2.45486 1.78028 0.520871
146 1 15.8425 3.69695 2.82771 1.20237
649 2 13.5743 0.0170183 -0.140066 1.56331
650 2 15.6866 1.25765 0.575055 2.00426
651 2 16.1451 1.09342 3.62635 2.27758
661 2 15.9248 3.74535 -0.0334361 2.01272
217 1 18.0756 2.54553 1.77148 0.646611
218 1 20.3467 3.87482 2.52836 0.542731
722 2 20.3869 1.45508 0.826623 1.51311
723 2 20.1812 1.342 3.66074 2.21994
289 1 22.5892 2.59489 1.8516 0.420777
290 1 24.9225 3.81404 2.54351 0.395018
794 2 24.7794 1.42163 0.726587 1.44494
795 2 24.8154 1.30491 3.37567 1.49506
361 1 27.0441 2.81399 1.34071 0.590416
362 1 29.2426 4.08332 2.59625 0.636276
13 1 6.48361 6.3503 1.78222 1.00435
446 2 4.039 5.2646 0.912447 2.23804
447 2 4.40475 4.98326 3.64829 1.96157
457 2 4.41031 8.05055 0.275064 1.45311
14 1 8.99056 7.71778 2.59184 1.02603
85 1 11.1008 6.26606 1.76239 0.984999
518 2 8.68676 5.1246 0.816603 2.09599
519 2 9.06228 5.10183 3.68476 1.71919
529 2 8.96119 7.48642 -0.355054 2.62728
86 1 13.3296 7.32944 2.75273 1.52164
157 1 15.7943 6.192 1.94631 1.135
590 2 13.611 4.99021 0.745889 2.32309
591 2 13.4242 4.83652 3.62921 1.89511
601 2 13.5386 7.53104 -0.178104 1.19754
158 1 18.2514 7.43853 2.61584 1.82741
229 1 20.6585 6.49129 1.66809 0.719621
662 2 18.35 4.92628 0.942235 2.92065
663 2 18.1506 4.89934 3.70619 2.277
673 2 17.736 7.54617 -0.153796 2.05898
230 1 22.6716 7.96995 2.406 0.607848
301 1 24.7396 6.50646 1.70339 1.20504
734 2 22.597 5.09856 0.567864 1.8872
735 2 22.653 5.34579 3.25026 2.71918
302 1 27.0501 7.80051 2.9783 0.493128
806 2 26.9597 5.32021 0.806165 1.76991
807 2 26.9156 5.3291 3.50562 1.99741
373 1 29.0707 6.63268 2.04199 1.74438
374 1 31.6441 7.70364 3.06858 1.19041
458 2 6.91223 9.03315 1.03939 1.94255
25 1 9.07511 10.3712 2.00843 1.20393
26 1 11.3418 11.541 2.66676 1.11795
470 2 9.18873 13.0073 0.941967 1.6066
471 2 9.16425 13.2939 3.42915 2.83546
530 2 11.2202 9.15661 0.806531 1.7625
531 2 11.2946 8.79863 3.62183 1.73386
541 2 11.4641 11.3967 -0.145135 2.39854
97 1 13.6847 10.0902 1.56691 1.91461
98 1 15.6821 11.722 2.48797 0.538633
542 2 13.4713 12.8285 0.92748 2.18745
543 2 13.5179 13.0921 3.85059 2.31646
602 2 15.6319 8.76534 0.802733 2.42411
603 2 15.8739 8.76957 3.60163 1.42466
613 2 15.5408 11.3897 -0.136127 2.17925
169 1 17.8004 10.5017 1.53081 1.70411
170 1 20.037 11.7389 2.59433 1.49994
614 2 18.0101 13.0611 0.620838 1.98494
615 2 17.9878 12.7644 3.43501 2.14103
674 2 20.2196 8.98543 0.696147 2.27798
675 2 20.2595 8.99701 3.26011 1.35282
685 2 20.1884 11.9209 -0.127254 1.83808
241 1 22.5878 10.6017 1.83821 0.472532
242 1 24.821 11.7842 2.89143 0.502466
686 2 22.5655 13.1742 1.02603 1.56997
687 2 22.1236 12.7878 3.64922 2.11468
746 2 24.7125 9.41856 0.91302 2.41347
747 2 24.7233 9.17787 3.82261 1.56315
313 1 26.9649 10.3034 2.08566 1.10491
758 2 27.1882 13.1247 0.916127 1.9167
759 2 27.0937 13.1735 3.75351 2.04095
314 1 29.4477 11.6217 2.71538 1.12238
385 1 31.8357 10.5466 2.00826 1.5139
818 2 29.1308 9.24911 1.10032 2.04653
819 2 29.36 8.9677 4.14726 2.98841
830 2 31.8367 12.7379 0.948582 2.12734
831 2 31.6998 13.2618 3.68225 2.24323
386 1 34.0544 11.922 2.9532 0.446565
459 2 34.0403 9.19705 4.01906 1.29542
469 2 34.1862 11.4403 -0.0194342 2.18666
37 1 11.5251 14.2671 1.89247 1.49776
482 2 11.2706 16.6658 0.563878 1.37459
38 1 13.618 15.7297 2.90518 0.52671
109 1 15.7902 14.2395 1.93503 1.45984
553 2 13.5105 15.7843 -0.0494433 2.05469
554 2 15.7052 17.1042 0.840122 2.05208
555 2 15.9459 16.7489 3.72339 1.91428
110 1 18.0088 15.4563 2.59758 1.18476
181 1 20.2861 14.3686 1.80927 1.20478
625 2 17.7177 15.8366 -0.222179 2.22281
626 2 20.2576 17.0504 0.939944 1.94125
627 2 20.3462 17.102 3.84655 2.44511
182 1 22.599 15.5577 2.69755 1.00375
253 1 24.9407 14.2383 2.00049 0.689334
697 2 22.4844 15.6516 -0.208539 1.88434
698 2 24.7183 16.816 1.06098 1.37013
699 2 24.9828 16.8439 3.6453 2.19058
254 1 27.0406 15.7144 2.69547 0.700703
325 1 29.2923 14.1828 1.93 1.27803
326 1 31.5788 15.6642 2.62994 0.422783
770 2 29.5275 16.9269 0.873458 1.54487
771 2 29.019 16.991 3.54061 2.10552
397 1 33.9019 14.3525 1.65343 0.381685
398 1 36.0176 15.6564 2.70102 0.525776
481 2 35.9264 15.522 0.0106957 1.75491
842 2 33.8379 17.0659 1.11848 2.59542
843 2 33.8507 17.0693 3.83529 2.88297
483 2 38.4215 16.9112 3.42036 1.8214
493 2 11.4084 19.7301 -0.163373 2.2258
49 1 13.3958 18.3546 1.88201 0.987007
50 1 15.751 19.5826 2.76823 0.35074
61 1 15.8281 22.1531 1.85891 0.897958
494 2 13.6574 20.9367 0.603862 1.98881
495 2 13.3262 20.904 3.46458 2.2436
565 2 16.0338 19.7526 0.102549 2.85581
121 1 17.8638 18.2014 1.67559 0.44766
122 1 20.1859 19.3745 2.64862 0.547509
133 1 20.3921 22.1519 1.87421 0.515452
566 2 18.2097 20.9089 1.03088 1.73874
567 2 17.9987 20.9955 3.74751 1.54268
637 2 20.302 19.5423 -0.124756 1.57178
193 1 22.5381 18.0955 2.06248 1.24112
194 1 24.8428 19.541 2.84217 0.427143
205 1 24.9321 21.8015 1.67948 1.42651
638 2 22.441 20.7482 0.889503 1.78934
639 2 22.3968 20.4778 3.59527 2.08394
709 2 25.1585 19.5474 0.11533 2.12274
265 1 27.2308 18.2364 1.67446 0.655128
710 2 27.2398 20.8145 0.775184 1.74444
711 2 27.0616 20.6986 3.64542 1.81071
266 1 29.4094 19.6623 2.5569 0.62871
277 1 29.4979 21.9925 1.51036 0.509655
337 1 31.641 18.1747 1.93169 0.739424
782 2 31.8012 20.5729 0.923396 2.28414
783 2 31.6231 20.6932 3.42018 2.55684
338 1 33.9146 19.4123 2.54863 0.520716
349 1 33.9565 21.9935 1.73073 0.376278
409 1 36.2571 18.1193 1.71898 0.410216
854 2 36.1292 20.7592 0.952547 1.41364
855 2 35.8443 20.5633 3.65715 1.75417
410 1 38.1757 19.6951 2.56714 0.378466
421 1 38.367 22.2014 1.76829 0.840946
62 1 18.2841 23.5265 2.65108 0.486225
134 1 22.5251 23.1862 2.93504 1.02741
206 1 27.2465 23.2842 2.61265 1.02233
278 1 31.6865 23.1691 2.6393 1.35731
350 1 35.9913 23.4058 2.71047 1.26875
422 1 40.685 23.6528 2.50523 1.20685
3 1 6.75243 3.77649 5.33168 0.666271
436 2 4.48768 2.54848 4.71058 2.32746
437 2 4.13914 2.2872 7.30844 1.45907
438 2 6.65401 3.74309 8.1503 2.46549
75 1 11.1826 3.90836 5.68251 0.48655
508 2 9.15536 2.58496 4.74827 1.65467
509 2 9.21833 2.92186 7.53085 2.47828
510 2 11.4745 4.14715 8.41383 2.72475
147 1 15.6332 3.86582 5.74254 0.73457
580 2 13.6019 2.77135 4.51305 2.49303
581 2 13.549 2.50712 7.49194 2.16978
582 2 15.9047 4.21859 8.37114 3.19735
219 1 20.1328 3.87424 5.39528 1.44618
652 2 17.9891 2.57731 4.67468 2.10668
653 2 17.7514 2.45127 7.29574 1.69763
654 2 19.9024 3.73869 7.93458 3.24477
291 1 24.7116 3.90551 5.30891 0.942317
724 2 22.4706 2.56469 4.58188 1.3042
725 2 22.516 2.45843 7.29394 1.84286
726 2 24.4785 3.9129 8.10212 2.12382
796 2 27.4025 2.556 4.00796 3.49648
797 2 26.6472 2.28467 7.02732 1.73218
363 1 29.1822 3.81596 5.30103 1.08468
798 2 29.342 3.99642 8.07334 2.36275
448 2 6.65453 6.16444 4.63102 2.36844
449 2 6.3292 6.58309 7.50144 2.58733
4 1 8.75647 5.26547 6.38678 0.444825
15 1 8.98338 7.70566 5.49626 1.07139
450 2 8.83582 7.81981 8.17648 1.90813
520 2 11.0168 6.31406 4.70175 2.39529
521 2 10.8639 6.60748 7.82196 3.91864
76 1 13.3114 5.23327 6.71056 1.32769
87 1 13.3858 7.74869 5.46958 1.42815
522 2 13.5605 7.64677 8.28424 1.93551
592 2 15.8881 6.06778 4.72014 2.45185
593 2 15.7634 6.44103 7.41051 1.75094
148 1 17.9228 5.04938 6.35277 0.639752
159 1 18.1631 7.70011 5.42399 0.781575
594 2 18.0706 7.77158 8.15251 1.56739
664 2 20.6184 6.44783 4.42991 2.05852
665 2 20.1247 6.49358 7.28204 1.92963
220 1 22.39 5.18403 6.14053 0.517983
231 1 22.7438 7.78741 5.5068 1.2689
666 2 22.6683 7.83659 8.42862 1.56368
736 2 24.8882 6.59222 4.45312 1.85993
737 2 24.696 6.42837 7.28826 1.40721
292 1 27.043 5.01547 6.22581 1.21036
303 1 27.0518 7.80063 5.61157 0.571992
738 2 27.0415 7.51385 8.41557 2.39799
364 1 31.6627 5.10392 6.4691 1.26466
375 1 31.5221 7.87764 5.6399 0.459222
808 2 29.1875 6.55049 4.82888 2.45602
809 2 29.326 6.72829 7.40658 2.24312
810 2 31.4638 7.84359 8.43445 1.64245
16 1 11.2166 9.17678 6.59136 1.01353
27 1 11.4587 11.8888 5.38471 1.58785
460 2 9.14264 10.4178 4.87176 1.58218
462 2 11.4701 11.7588 8.20413 2.18636
28 1 13.48 12.9936 6.52932 0.471733
88 1 15.8377 8.96236 6.40244 1.23411
99 1 15.4554 11.425 5.40895 1.81172
532 2 13.5579 10.1021 4.29757 1.61401
533 2 13.7411 10.3023 7.43983 2.56429
534 2 15.6198 11.7484 8.26904 1.72872
100 1 17.6828 12.8097 6.49807 0.659368
160 1 20.3659 9.15996 6.33592 1.42745
171 1 19.8585 11.6329 5.36972 0.573994
604 2 17.9092 10.244 4.45585 1.61147
605 2 18.0639 10.3831 7.03566 2.1663
606 2 19.9373 12.0509 8.07395 2.74544
172 1 22.2372 12.8465 6.26348 0.588998
232 1 24.8049 9.10851 6.61638 0.433716
243 1 24.4326 11.6266 5.59292 0.471467
676 2 22.2165 10.4193 4.76217 3.00617
677 2 22.3911 10.5218 7.40092 1.72666
678 2 24.7803 11.6982 8.37706 1.75382
244 1 26.8113 13.2783 6.39695 0.73375
748 2 26.8187 10.4185 4.84001 2.26839
749 2 27.018 10.4434 7.09419 2.59657
304 1 29.4126 9.1466 6.59665 0.639995
315 1 29.2986 11.6061 5.47732 1.41779
316 1 31.501 13.1483 6.41049 0.690038
750 2 29.2837 11.5867 8.32036 1.66462
820 2 31.7265 10.408 4.42853 1.81277
821 2 31.6469 10.6187 7.16558 2.56144
376 1 33.6951 9.291 6.58335 0.661745
387 1 33.6087 11.912 5.71917 0.497627
388 1 36.1139 13.2175 6.32403 1.6401
461 2 35.9837 10.4759 7.2315 2.25503
822 2 33.9261 11.5975 8.20791 1.81038
472 2 11.149 14.4985 4.63265 2.0366
39 1 13.7715 15.5106 5.53019 1.43294
40 1 15.9354 17.1589 6.5545 1.44361
474 2 13.5359 15.6856 8.29533 1.86401
544 2 15.749 13.9403 4.85185 2.99981
545 2 15.597 14.5446 7.41124 2.18697
111 1 17.8459 15.4291 5.4657 1.3148
112 1 20.2956 16.8809 6.32918 1.43061
546 2 18.1997 15.8448 8.1877 2.7814
616 2 20.1725 14.6313 4.47171 2.9883
617 2 20.2692 14.3393 7.17964 1.46631
183 1 22.567 15.3676 5.60265 0.426662
184 1 24.6941 16.7409 6.43371 0.780056
618 2 22.699 15.689 8.03594 2.8253
688 2 24.6537 14.1076 4.49912 2.20489
689 2 24.5731 13.8459 7.38663 3.81416
255 1 26.7806 15.4552 5.33246 0.868015
690 2 26.7538 15.425 8.11328 2.9081
256 1 28.9958 16.6524 6.16464 1.89585
327 1 31.4238 15.6017 5.24821 0.483629
760 2 29.1472 14.2124 4.39794 1.74863
761 2 29.1552 14.1471 7.39081 1.68981
762 2 31.3098 15.671 8.01605 2.03153
328 1 33.5861 16.9041 6.29553 1.72809
399 1 35.8983 15.7174 5.33949 0.62654
832 2 33.8239 14.3173 4.39845 1.69584
833 2 33.8178 14.4215 7.31619 1.64875
834 2 35.9328 15.8406 7.99387 2.13426
400 1 38.1828 16.7658 6.34885 1.07295
473 2 38.4495 14.3212 7.48414 1.86874
51 1 15.9505 19.7288 5.43213 1.62824
484 2 13.5337 18.2008 4.66076 2.43707
486 2 15.7473 19.7021 8.56824 2.69105
496 2 15.7431 22.0912 4.61037 1.83685
52 1 18.0596 20.7813 6.52579 1.15547
123 1 20.2471 19.3955 5.39482 0.971749
556 2 17.6805 18.0677 4.29457 2.86791
557 2 18.2418 18.0679 7.44478 2.43454
558 2 20.4378 19.2962 8.28113 2.42007
568 2 20.3518 22.0302 4.46228 1.74664
569 2 20.4167 22.1679 7.4247 1.46024
124 1 22.4082 20.7732 6.57629 0.421241
195 1 24.6065 19.6324 5.54594 0.46406
628 2 22.4911 18.2821 4.82242 1.82044
629 2 22.4552 18.0669 7.542 3.25572
630 2 24.9107 19.1933 8.05182 2.90756
640 2 25.024 22.0425 4.48286 1.50281
641 2 24.602 22.1009 7.37898 1.74419
196 1 26.8179 20.598 6.60322 0.545661
700 2 26.883 18.0916 4.81176 2.47295
701 2 26.9247 17.7811 7.30801 3.05727
267 1 29.0772 19.7706 5.65133 0.950347
268 1 31.3299 20.6389 6.22053 0.523584
702 2 29.2334 19.4636 8.13311 2.36149
712 2 29.5609 21.9322 4.21635 2.59392
713 2 29.1652 21.8635 7.35518 2.6108
772 2 31.171 18.2768 4.25302 2.7653
773 2 31.1152 17.8474 6.7123 2.30566
339 1 33.7538 19.4687 5.20213 1.56173
340 1 36.1269 20.6614 6.44705 0.534997
774 2 33.4263 19.1407 8.27105 2.9904
784 2 33.7256 22.1374 4.4174 1.80012
785 2 33.6247 21.7955 7.07832 2.30733
844 2 36.1923 18.3099 4.52172 1.8096
845 2 35.6912 18.0917 7.15179 2.40148
411 1 38.283 19.4645 5.46833 0.402876
412 1 40.4544 20.8434 6.1876 1.13084
485 2 40.5725 18.2039 7.14787 1.65302
846 2 38.1437 19.5696 8.16918 1.9428
856 2 38.0797 22.0956 4.40975 2.20076
857 2 38.1452 21.8711 7.37247 2.44295
497 2 42.8686 22.1181 7.32941 1.60368
63 1 18.2419 23.3719 5.52728 1.29821
64 1 20.4466 24.7269 6.36784 0.422031
498 2 18.1301 23.0233 8.69789 3.09565
135 1 22.5526 23.209 5.53941 0.567441
136 1 24.8745 24.6238 6.26574 1.38711
570 2 22.4836 23.6002 8.21151 1.59821
207 1 27.0958 23.329 5.26772 1.43501
642 2 26.9505 23.2323 8.04725 2.50252
208 1 29.0724 24.6474 6.22364 1.68915
279 1 31.3874 23.3191 5.38798 1.00206
714 2 31.7683 23.193 8.12619 2.65197
280 1 33.7077 24.6315 6.43922 1.12655
351 1 35.775 23.4027 5.39136 1.34137
786 2 35.7748 23.2572 8.03822 1.69463
352 1 38.1098 24.5874 6.06499 1.4276
423 1 40.4937 23.5112 5.18947 1.09575
858 2 40.4928 23.4714 8.06561 1.70698
424 1 42.8233 24.5546 6.46784 1.59581
439 2 6.89791 4.08071 10.7805 3.23246
511 2 11.0945 4.05409 10.9204 2.08005
583 2 15.7367 4.09454 11.0105 1.87369
655 2 20.2422 4.02331 10.7412 1.94975
727 2 24.7506 3.78808 10.7541 1.58058
799 2 29.0739 3.80521 10.9088 2.20968
5 1 8.87563 5.13656 9.22232 1.83736
6 1 11.5753 6.62344 10.2343 2.06321
7 1 11.3909 6.48136 12.9938 1.13297
440 2 8.92941 5.26034 12.0874 1.16588
451 2 9.04314 7.67624 10.8578 2.03334
77 1 13.7189 5.10662 9.36367 0.670845
78 1 15.8608 6.5403 10.0496 0.376362
79 1 15.7835 6.31856 12.8123 0.480172
512 2 13.5363 4.72692 11.9443 2.81608
523 2 13.4993 7.4833 11.354 2.98801
149 1 18.1328 5.26142 8.95088 1.8909
150 1 20.3738 6.80656 9.95327 1.44564
151 1 20.1375 6.62397 12.9187 1.03112
584 2 18.1976 5.25106 11.7751 2.02115
595 2 17.982 8.04577 11.0932 1.92546
221 1 22.3298 5.2197 8.88503 1.35965
222 1 24.6702 6.34405 9.95955 1.21635
223 1 24.6232 6.27296 12.7415 1.52108
656 2 22.2227 5.39622 11.5477 2.43937
667 2 22.7802 8.12222 11.0916 2.67573
293 1 27.1108 4.97435 9.085 1.28518
728 2 26.7137 5.23248 11.9485 1.90135
739 2 26.9304 7.66336 11.0025 1.89312
294 1 29.1398 6.71683 10.2595 1.84328
295 1 29.2074 6.52582 12.7783 1.12483
365 1 31.5989 5.1629 9.20555 0.544204
800 2 31.2211 4.87204 11.8682 1.82489
811 2 31.6355 7.40638 11.2192 3.0487
366 1 33.7091 6.5831 10.0118 0.643118
367 1 33.8112 6.45653 12.6496 0.485412
17 1 11.1728 8.90084 9.2029 0.677292
452 2 11.3182 9.0218 12.0554 1.56309
463 2 11.4264 11.9506 10.8524 2.87947
18 1 13.3574 10.1676 10.1181 1.46053
19 1 13.4356 10.4279 12.8385 0.50607
29 1 13.295 12.8705 9.4071 0.618374
89 1 15.7873 9.14872 9.12875 1.01773
464 2 13.3875 13.1119 12.0254 2.13803
524 2 15.5291 9.1211 12.1005 2.09738
535 2 15.5822 11.5585 11.1046 1.58989
90 1 18.0657 10.4367 10.0351 1.39693
91 1 17.6012 10.3658 12.9605 1.87529
101 1 17.9365 13.141 9.03114 1.5163
161 1 20.4001 9.36251 9.37807 1.7958
536 2 17.7011 13.0105 11.9204 2.03696
596 2 20.5695 9.0198 12.193 2.41041
607 2 20.165 11.6658 11.0936 2.07431
162 1 22.6459 10.5126 10.2364 1.29746
163 1 22.7132 10.5336 13.0262 0.559294
173 1 22.2693 12.8586 8.89793 0.62193
233 1 24.8868 9.05638 9.35066 1.18554
608 2 22.3628 13.0673 11.7173 2.1398
668 2 24.9989 9.23042 12.2526 2.30848
679 2 24.7611 11.7064 11.3278 2.3078
234 1 27.0299 10.6654 10.1206 1.33517
235 1 27.1554 10.449 12.9403 0.501451
245 1 26.9687 13.2485 9.12396 0.54209
680 2 27.0513 12.9002 11.7184 2.01475
305 1 29.2307 9.28231 9.19386 0.562646
306 1 31.5798 10.4853 9.9587 1.34623
307 1 31.6435 10.332 12.8056 0.438622
317 1 31.4233 13.1511 9.15445 0.494926
740 2 29.582 9.08911 11.5994 2.79041
751 2 29.2164 11.5832 11.0933 2.05037
752 2 31.6258 12.9347 11.977 1.973
377 1 33.828 9.19284 9.12431 0.376925
378 1 36.2223 10.4938 10.0958 1.16807
379 1 36.0863 10.3956 12.9547 1.15014
389 1 36.1152 13.057 9.1567 0.552924
812 2 34.0358 9.03856 11.9026 1.85726
823 2 33.9684 11.6382 11.183 2.57387
824 2 36.0629 12.9217 12.1507 1.69375
30 1 15.4935 14.1966 10.0737 1.14728
31 1 15.6995 14.3329 12.7465 0.44488
41 1 15.7486 16.9197 9.19105 0.46951
476 2 15.8049 16.9184 12.0377 1.62494
102 1 20.3518 14.3894 9.89575 0.55891
103 1 19.9419 14.1101 12.6674 1.64758
113 1 20.5192 16.9651 9.13388 0.637817
547 2 17.7003 15.6138 10.9675 2.34084
548 2 20.118 16.5189 11.9254 2.2078
174 1 24.6753 14.2353 10.0467 1.52679
175 1 24.9727 14.1907 12.9488 0.576706
185 1 24.6733 16.9703 9.31523 0.69113
619 2 22.8076 15.6954 10.6735 3.50146
620 2 24.9252 16.9589 11.7902 2.57557
691 2 27.0924 15.5664 10.8022 2.04886
246 1 29.3359 14.2825 10.0445 0.557851
247 1 29.1789 14.2558 12.885 0.384581
257 1 29.079 16.7422 9.19294 1.38936
692 2 29.1975 16.6627 11.8022 2.72766
763 2 31.4396 15.5599 10.6534 1.81213
318 1 33.8277 14.1238 10.0339 1.58602
319 1 33.8778 14.299 12.7858 0.460142
329 1 33.7373 16.7799 9.37906 1.40263
764 2 33.7609 16.8049 12.2488 2.52247
835 2 35.8395 15.5545 11.0033 2.08856
390 1 38.1946 14.3726 10.223 0.535151
391 1 38.1619 14.3055 12.7996 0.396828
401 1 38.275 16.9224 9.0098 0.415301
475 2 40.3751 15.7208 11.2013 2.22637
836 2 38.1746 17.0077 11.8001 2.26436
42 1 17.9827 18.1235 10.0962 0.430377
43 1 18.1945 18.1166 12.8038 1.23447
53 1 18.1597 20.6951 9.30334 0.607742
54 1 20.19 22.1921 10.1997 1.01665
55 1 20.2179 22.1356 13.1359 1.23175
488 2 17.9671 21.1728 11.8269 2.41719
559 2 20.3487 19.1498 10.8533 2.99979
114 1 22.5326 18.4331 9.91424 0.64411
115 1 22.3581 17.9336 12.7394 1.21397
125 1 22.4263 21.0497 9.33363 0.553039
126 1 24.6154 22.4175 10.1491 1.59137
127 1 24.6395 21.8867 12.978 1.40704
560 2 22.4956 20.6408 11.9958 2.0241
631 2 24.8078 19.4506 11.1379 1.80487
186 1 26.9263 18.2387 10.2443 0.452338
187 1 27.1894 18.2712 12.806 1.06877
197 1 26.9882 20.9696 9.30614 1.12914
632 2 27.1482 20.8711 11.8782 1.46598
198 1 29.5034 21.8976 10.1007 1.74763
199 1 29.5148 22.1159 12.8943 0.530488
258 1 31.3408 18.2974 10.0683 1.2388
259 1 31.2284 18.1368 12.6643 1.37971
269 1 31.3174 20.6239 8.91196 0.660686
703 2 29.188 19.5802 11.0359 3.28078
704 2 31.5451 20.594 11.7391 1.74401
270 1 33.6599 22.0602 10.083 1.09292
271 1 33.8041 22.0338 12.8242 0.427432
330 1 36.0058 18.0082 9.77154 1.44993
331 1 36.1411 18.2315 12.7884 0.426514
341 1 35.8716 20.8364 9.06371 0.411402
775 2 34.0075 19.4239 11.0073 2.59458
776 2 35.8997 20.8484 11.8321 1.81291
342 1 38.1921 22.0784 9.99542 0.489036
343 1 38.4783 22.1796 12.8941 1.02707
402 1 40.6294 18.3828 9.76354 1.30804
403 1 40.4408 18.2448 12.7461 2.1484
413 1 40.4205 20.9511 9.02847 0.479326
847 2 38.0903 19.4739 10.8157 2.2442
848 2 40.4567 20.6985 11.7624 1.64279
414 1 42.6887 21.8755 10.2539 1.73742
415 1 42.7018 21.8654 13.0561 1.48537
487 2 42.917 19.3218 11.2253 1.84981
65 1 20.4046 24.9686 9.05124 1.44441
500 2 20.2477 24.4959 12.062 2.01781
66 1 22.638 26.1015 10.0673 0.545538
67 1 22.4937 26.0069 12.7942 0.927588
137 1 25.0531 24.9249 8.97403 0.541368
571 2 22.452 23.3399 11.1492 2.21385
572 2 24.8332 24.9206 11.8036 2.35439
138 1 27.1112 26.0431 10.1978 0.45917
139 1 27.0999 25.7934 12.9718 1.4743
643 2 27.1635 23.468 10.8296 2.10184
209 1 29.26 24.8863 9.02939 1.56296
210 1 31.521 25.9762 10.077 1.1003
211 1 31.6208 26.0371 12.6317 1.02945
644 2 29.2396 24.7263 11.7761 1.83732
715 2 31.3103 23.4621 11.0576 1.95725
281 1 33.8968 24.5649 9.33421 1.67319
282 1 36.1054 26.0723 10.0722 0.473413
283 1 36.1287 26.1413 12.6226 1.14914
716 2 33.9539 24.7763 12.2154 2.93417
787 2 36.2001 23.4968 10.9538 1.26018
353 1 38.2674 24.6015 8.98338 1.05019
354 1 40.6886 25.8266 9.79652 1.75724
355 1 40.71 26.0689 12.5414 1.90737
788 2 38.1818 24.7286 11.9535 1.83824
859 2 40.4019 23.4736 11.0193 1.64402
425 1 42.9472 24.5666 9.1101 1.12595
426 1 45.0056 26.0604 10.1947 1.17485
427 1 45.093 25.9136 12.9264 1.3267
499 2 45.0594 23.6113 11.13 1.77403
860 2 42.8668 24.4272 11.9906 1.88337
441 2 8.59314 5.34656 15.0611 3.35752
442 2 11.1074 6.53985 15.591 1.4183
8 1 13.5684 7.69032 13.9308 1.17041
9 1 13.5586 7.71048 16.6122 0.351715
513 2 13.4566 5.10644 14.8887 1.62762
514 2 15.6282 6.37745 15.6227 2.26086
80 1 17.8508 7.57163 13.8157 0.532088
81 1 17.9792 7.84124 16.5401 0.486135
585 2 17.8245 5.0037 14.6363 1.98065
586 2 19.8652 6.62863 15.7257 3.34702
152 1 22.6031 7.83476 13.8714 1.17287
153 1 22.4689 7.67892 16.5906 0.639433
657 2 22.4206 5.49305 14.41 2.75814
658 2 24.7937 6.54048 15.1522 2.60133
224 1 26.9079 7.88578 13.5836 1.18919
225 1 27.0303 7.58785 16.4368 1.12753
729 2 26.9131 5.11932 14.9155 2.34641
296 1 31.6575 7.85582 13.761 1.31361
297 1 31.4298 7.94078 16.5855 0.686924
730 2 29.4867 6.67681 15.6623 2.11921
801 2 31.4822 5.05015 14.4308 1.83335
368 1 35.9906 7.87861 13.7958 0.957078
369 1 35.9272 7.91266 16.5686 0.402101
802 2 33.39 6.64547 15.512 2.94895
453 2 11.1262 8.96436 14.7166 1.14517
10 1 15.6367 9.12065 17.344 0.476144
20 1 15.6631 11.6563 13.7016 0.528684
21 1 15.767 11.5574 16.5416 1.01268
454 2 13.1513 10.2776 15.5858 2.14479
525 2 15.8393 8.8793 14.7106 1.96519
22 1 17.9702 12.9856 17.4916 0.899419
82 1 20.2893 9.24806 17.5844 0.470145
92 1 20.2425 11.6341 13.9851 1.58637
93 1 20.1064 11.7191 16.704 0.765694
526 2 18.1535 10.3815 15.5902 1.62392
537 2 17.8913 12.9721 14.6826 1.44476
597 2 20.1617 8.95347 14.8237 2.27925
94 1 22.494 12.9722 17.3918 0.977162
154 1 24.7279 8.87411 17.6316 1.90852
164 1 24.7292 11.7633 14.0266 0.694925
165 1 24.6577 11.4267 16.664 1.46262
598 2 22.1785 10.6091 15.5049 2.48661
609 2 22.7195 13.2251 14.4689 2.70971
669 2 24.9125 9.38518 14.8906 2.71999
166 1 26.9312 12.8441 17.244 1.36441
670 2 27.1718 10.3 15.6161 1.67928
681 2 27.1262 12.9007 14.609 1.719
226 1 29.1193 9.06998 17.1924 0.511916
236 1 29.274 11.4821 13.7729 0.600487
237 1 29.2511 11.8263 16.3933 0.436122
238 1 31.4058 13.0824 17.3585 1.0536
741 2 29.5818 9.17984 14.6668 2.58295
742 2 31.4434 10.3436 15.2248 2.81169
753 2 31.2041 12.8877 14.5924 2.15093
298 1 33.7086 9.18825 17.6079 0.398722
308 1 33.7398 11.8136 13.8759 0.859131
309 1 33.7082 11.6779 16.6016 1.06016
310 1 36.34 12.9654 17.3748 0.616083
813 2 34.0776 9.22344 14.9493 2.33314
814 2 35.9684 10.7232 15.6426 2.12897
825 2 36.1754 13.2011 14.6364 1.72854
370 1 38.2275 9.03656 17.3859 0.426025
380 1 38.169 11.7128 13.6598 0.367402
381 1 38.2471 11.6437 16.478 0.518951
382 1 40.532 13.0423 17.2636 1.43429
465 2 40.626 12.8714 14.5005 2.43263
466 2 15.6491 14.3166 16.0489 3.01362
32 1 17.8645 15.4917 13.8046 0.39117
33 1 17.9242 15.6425 16.6097 1.04414
34 1 20.1051 16.9598 17.3963 1.06818
538 2 20.5329 13.94 15.3169 3.5454
549 2 20.1795 16.9093 14.5187 1.76309
104 1 22.3114 15.452 13.4 1.63366
105 1 22.545 15.5615 16.3274 1.2581
106 1 24.6068 16.8321 17.5682 0.460148
610 2 24.9061 14.396 15.5802 1.521
621 2 24.5939 16.9046 14.8361 1.3177
176 1 27.0348 15.5596 13.6374 0.550573
177 1 26.8828 15.5896 16.5401 1.45581
178 1 29.2951 16.7959 17.3453 1.07505
248 1 31.4725 15.492 13.5292 0.954376
249 1 31.6621 15.7784 16.3985 1.32615
682 2 29.333 14.6021 15.6458 1.81184
693 2 29.378 16.9807 14.577 1.54802
250 1 33.8174 16.999 17.1586 0.75667
320 1 35.9236 15.6816 13.785 0.57094
321 1 36.2426 15.5719 16.4961 0.588558
754 2 33.7633 14.4651 15.6666 1.90858
765 2 33.6878 16.7072 14.6611 3.29294
322 1 38.3969 16.8851 17.4477 0.48493
392 1 40.6315 15.5716 13.8388 0.942662
393 1 40.5261 15.7129 16.6238 0.572124
826 2 38.4564 14.2347 15.6046 1.9543
837 2 38.3049 16.7613 14.3685 2.31802
394 1 42.724 16.8155 17.8778 0.565465
477 2 43.0921 16.8015 15.1725 3.73239
44 1 20.1961 19.5535 13.7498 1.28156
45 1 20.2949 19.5138 16.6205 0.442905
478 2 18.0768 18.2058 15.9595 2.05729
490 2 20.2425 22.025 15.7216 1.79416
46 1 22.4895 20.8797 17.4949 0.550823
116 1 24.6325 19.4195 13.7786 1.00482
117 1 24.6908 19.5218 16.6101 0.881265
550 2 22.3927 18.1143 15.6572 1.8887
561 2 22.2681 20.5975 14.7025 2.06673
562 2 24.6273 21.9085 15.5149 1.7709
118 1 26.9412 20.706 17.4222 1.08384
622 2 26.9915 18.0979 15.7073 1.56234
633 2 27.2385 20.4789 14.8036 2.73649
188 1 29.2806 19.6118 13.8219 0.529828
189 1 29.2302 19.3878 16.8623 1.66437
190 1 31.558 20.8265 17.4402 0.987574
634 2 29.2818 21.9869 15.5368 1.71094
694 2 31.5016 18.4207 15.1975 2.80159
705 2 31.645 20.8821 14.478 2.50121
260 1 33.9604 19.3994 13.7482 1.27692
261 1 33.9602 19.6663 16.4688 0.544504
262 1 35.9979 20.9613 17.4836 0.591919
706 2 33.734 22.0639 15.684 1.48705
766 2 36.0435 18.0724 15.5351 2.36311
777 2 36.0229 20.8709 14.7326 3.49067
332 1 38.1394 19.7664 13.8516 1.22302
333 1 38.0871 19.4294 16.6422 1.25789
334 1 40.6318 20.8069 17.4565 1.55903
778 2 38.28 22.2847 15.7338 2.58355
838 2 40.4721 18.1762 15.3953 1.32136
849 2 40.4904 20.7816 14.7996 1.67404
404 1 42.8804 19.2335 13.9349 1.3966
405 1 42.7122 19.3153 16.667 0.544653
406 1 44.9812 20.6393 17.5333 1.23472
489 2 45.1119 20.8998 14.6957 2.13144
850 2 42.8692 22.1145 15.7328 1.4969
56 1 22.4028 23.4288 14.1089 1.79801
57 1 22.2965 23.6552 16.825 0.810287
58 1 24.7503 24.8811 17.1836 1.59703
502 2 22.6463 26.3649 15.5788 2.17779
573 2 24.5858 24.5552 14.5805 2.06265
128 1 26.874 23.1453 13.7159 1.51173
129 1 26.8934 23.459 16.3903 1.34267
574 2 26.9568 26.0996 15.646 1.44683
130 1 29.1353 24.7284 17.4552 0.968708
200 1 31.711 23.4475 13.7378 0.908675
201 1 31.319 23.4992 16.6533 1.30202
645 2 29.2056 24.6357 14.6727 2.1288
646 2 31.4802 25.9923 15.4212 1.79402
202 1 33.8495 24.8191 17.5253 1.10747
272 1 36.0971 23.1758 13.7365 1.84669
273 1 36.0848 23.4213 16.4516 0.491298
717 2 33.9404 24.785 14.575 1.23644
718 2 35.8109 26.2724 15.6871 1.6128
274 1 38.2267 24.7349 17.6758 1.15221
344 1 40.7869 23.619 13.7428 1.52444
345 1 40.4071 23.4547 16.5386 1.69264
789 2 37.976 24.5735 14.7471 1.42931
790 2 40.6026 25.8301 15.4831 1.8595
346 1 43.0113 24.6026 17.663 1.1166
416 1 44.8417 23.2781 13.867 0.588308
417 1 45.1832 23.2217 16.5889 1.41792
861 2 42.8753 24.829 15.0366 2.2686
862 2 45.0667 25.7016 15.4497 2.39872
418 1 47.311 24.821 17.4276 0.598277
501 2 47.433 24.6242 14.731 1.56661
68 1 24.8659 27.2114 13.7682 0.955254
69 1 24.6603 27.5052 16.4695 0.540783
70 1 26.9285 28.671 17.6107 0.530527
140 1 29.3127 27.2877 13.8918 0.957003
141 1 29.2776 27.5829 16.6306 1.3318
142 1 31.5443 28.83 17.4311 0.520372
212 1 33.8792 27.5345 13.6785 0.543551
213 1 33.6148 27.4978 16.3475 1.40362
214 1 36.1234 28.5909 17.4064 1.36864
284 1 38.4988 27.1072 13.6317 1.49573
285 1 38.4424 27.2574 16.5395 1.10045
286 1 40.7008 28.4696 17.4777 0.787498
356 1 42.73 27.4332 13.9082 1.06864
357 1 43.1125 27.2676 16.5946 1.26664
358 1 45.176 28.946 17.3753 1.32569
428 1 47.4946 27.3614 13.7236 0.430222
429 1 47.3222 27.2965 16.4593 1.44807
430 1 49.6943 28.7383 17.5508 1.40472
443 2 11.3962 6.42187 18.5427 2.58733
444 2 13.548 7.85657 19.4047 1.36981
515 2 15.7359 6.52841 18.4441 1.10902
516 2 17.9341 7.58714 19.2775 1.78662
587 2 20.4773 6.62029 18.5791 2.23913
588 2 22.7262 7.9097 19.3895 1.74324
659 2 24.6364 6.37827 18.072 2.27093
660 2 26.8406 7.88833 19.2361 1.93447
721 2 31.6942 7.71762 22.1631 1.97707
731 2 29.097 6.40506 18.3874 1.78393
732 2 31.7458 7.88979 19.3428 1.59029
793 2 36.0193 7.71419 21.9237 1.38911
803 2 33.7209 6.66795 18.2883 1.75248
804 2 36.2771 7.54082 19.172 1.88789
11 1 15.9392 9.13772 20.2843 1.24492
455 2 13.164 10.5032 18.2069 2.68755
456 2 15.6525 11.5827 19.2566 1.57877
12 1 18.2628 10.1654 21.1913 0.653225
23 1 17.8686 12.8794 20.2732 1.17874
83 1 20.3138 9.00705 20.272 0.485395
527 2 17.9059 10.2112 18.4014 1.14727
528 2 20.0045 11.5109 19.4511 2.08075
84 1 22.5129 10.353 21.1954 0.903319
95 1 22.3125 12.8885 20.1541 1.42334
155 1 24.8518 9.13658 20.523 0.615724
599 2 22.5069 10.3351 18.3484 1.59972
600 2 24.4803 11.5548 19.4621 1.89192
156 1 27.0886 10.4635 21.147 0.534545
167 1 27.0189 12.7739 19.9874 0.520138
671 2 26.768 10.3063 18.4251 1.99607
227 1 29.3849 8.87348 20.0057 1.41415
228 1 31.5785 10.1991 21.2012 0.437358
239 1 31.2806 12.7279 20.1526 1.47113
672 2 29.0528 11.2168 19.329 2.70812
743 2 31.0876 10.4764 18.1143 2.94914
299 1 33.9812 9.02171 20.2994 0.980101
300 1 36.1796 10.3315 21.1852 0.316445
311 1 35.9696 12.8853 20.0894 1.1918
733 2 33.8758 11.5642 21.9484 2.14165
744 2 33.433 11.7039 19.0827 2.95895
815 2 36.0486 10.5732 18.3942 1.71025
371 1 38.3926 9.13738 20.0838 0.58249
372 1 40.7255 10.349 21.0211 0.49151
383 1 40.5785 12.9243 20.0804 1.34232
805 2 38.4733 11.7113 21.8712 1.30315
816 2 38.1886 11.5298 19.2201 1.59823
24 1 20.0278 14.1846 21.2038 1.04317
35 1 20.4228 16.7828 20.2371 0.351937
468 2 17.8831 15.4794 19.5572 1.56918
539 2 20.1741 14.3152 18.1904 2.74659
96 1 24.7393 14.0232 20.9878 1.20212
107 1 24.7684 16.5722 20.306 0.488233
540 2 22.6386 15.3585 19.0629 1.77069
611 2 24.6879 14.0367 18.2953 1.45995
612 2 27.1367 15.3043 19.1743 1.84834
168 1 29.2909 14.2175 21.0561 1.3512
179 1 29.5059 16.7256 20.2319 0.629011
683 2 29.2787 14.2497 18.304 1.45566
684 2 31.6452 15.4982 19.3304 2.0663
240 1 33.8483 14.182 21.1752 0.878488
251 1 33.8837 16.7594 20.1557 1.25868
745 2 36.1728 15.7243 21.8982 3.16245
755 2 34.1672 14.292 18.3209 1.52619
756 2 36.0653 15.5191 19.1663 1.67749
312 1 38.2737 14.3571 21.1052 1.36076
323 1 38.2648 17.012 20.3312 1.20184
817 2 40.262 15.8529 22.2145 2.39511
827 2 38.32 14.35 18.0583 3.15903
828 2 40.6425 15.7772 19.6424 2.28567
384 1 42.555 14.1917 21.2995 1.26659
395 1 42.9596 16.7821 20.5733 0.642704
467 2 42.371 14.1573 18.7874 4.87442
480 2 20.4315 19.4112 19.3978 1.67102
36 1 22.5528 17.79 21.2397 0.761545
47 1 22.5322 20.689 20.3683 0.57743
48 1 24.7212 21.9467 21.054 1.45714
551 2 22.3052 18.2927 18.6185 2.85904
552 2 24.6936 19.0769 19.4026 2.02288
563 2 24.5167 22.0542 18.2855 2.33118
108 1 27.1662 17.867 20.9003 0.619614
119 1 26.8958 20.5537 20.3163 0.438986
623 2 27.2424 18.1102 18.3425 1.76968
120 1 29.0547 21.8812 21.1259 1.31895
180 1 31.7819 18.2305 21.0416 1.2736
191 1 31.4314 21.0611 20.0282 1.76439
624 2 29.2702 19.5453 19.6698 2.63349
635 2 29.0923 21.988 18.4278 1.80651
695 2 31.5768 18.1872 18.0163 2.26701
192 1 33.6092 22.5436 21.1287 1.94944
252 1 35.9692 18.2398 21.1808 0.514063
263 1 35.8238 20.8879 20.3303 1.25246
696 2 33.7342 19.1873 19.1049 2.68013
707 2 33.8156 22.2461 18.6873 2.2206
767 2 36.115 18.019 18.2881 1.71349
264 1 38.3152 22.1601 21.2975 1.4522
324 1 40.7491 18.2469 21.278 0.619091
335 1 40.6771 20.6715 20.3454 0.444208
757 2 38.3222 19.5361 22.3646 1.86791
768 2 38.0209 19.312 19.5232 1.62096
779 2 38.3467 21.6952 18.1949 1.79886
839 2 40.3699 18.5087 18.3991 2.05826
336 1 42.6794 22.1321 21.2702 1.75594
396 1 45.233 18.174 21.2959 1.03381
407 1 45.0386 20.6911 20.3766 1.12514
479 2 44.9241 17.9799 18.7101 2.51285
829 2 42.8282 19.3923 22.2671 1.82479
840 2 42.7176 19.1634 19.3889 2.26583
851 2 42.8296 21.9507 18.5748 1.60533
408 1 47.3513 21.9163 21.0626 0.468947
491 2 47.1991 21.9431 18.4622 1.29799
59 1 24.7934 24.7402 20.1248 1.66843
492 2 22.5824 23.0701 19.4983 3.1378
503 2 22.6448 25.9477 18.3246 2.25528
60 1 27.1627 26.1804 21.3243 0.481521
564 2 27.1548 23.3018 19.2936 1.33246
575 2 27.1807 25.9666 18.6207 2.0712
131 1 29.096 24.5356 20.2095 1.30326
132 1 31.5593 26.0107 21.1527 0.604179
636 2 31.6026 23.4093 19.309 2.30477
647 2 31.466 26.1227 18.1958 1.59402
203 1 33.711 24.9742 20.1608 0.560626
204 1 36.1253 26.1586 21.3774 1.50952
708 2 36.3107 23.3692 19.3595 2.18883
719 2 36.0865 26.3094 18.2429 2.19847
275 1 38.3652 24.9038 20.6245 1.86901
276 1 40.6872 25.9874 21.09 0.580616
769 2 40.7507 23.5319 22.0786 1.77877
780 2 40.3841 23.3728 19.16 1.42979
791 2 40.9216 26.0237 18.5153 2.1218
347 1 43.1391 24.8299 20.3233 0.622239
348 1 45.1197 26.1083 21.2956 1.2373
841 2 45.4151 23.197 21.9544 2.76929
852 2 45.0741 23.392 19.2889 1.90345
863 2 45.227 26.4119 18.208 2.7426
419 1 47.4065 24.6516 20.0899 1.31339
420 1 49.5602 25.8901 20.868 0.502728
504 2 24.8982 27.3907 19.1269 1.38039
71 1 26.9918 28.6337 20.2044 0.675402
72 1 29.2021 29.8959 21.1083 1.25198
143 1 31.5249 28.3622 20.0741 1.39032
576 2 29.1531 27.4031 19.4601 2.0422
144 1 33.7027 29.8959 21.1989 1.15003
215 1 35.9262 28.5769 20.3209 1.24802
648 2 33.7165 27.2754 18.8325 3.00679
216 1 38.2886 30.0062 21.0478 0.349217
287 1 40.3944 28.6473 19.9728 1.59157
720 2 38.4454 27.2805 19.3352 1.57212
288 1 42.8801 29.9105 21.0606 1.20299
359 1 45.2182 28.6324 20.3954 1.1839
781 2 42.7458 27.371 22.1325 2.14739
792 2 42.9924 27.4992 19.2858 1.9455
360 1 47.4142 29.8979 21.1055 1.51923
431 1 49.7073 28.4538 20.2726 0.427301
853 2 47.5096 27.0954 21.9094 1.90003
864 2 47.7553 27.3753 18.9931 3.03174
432 1 51.8014 30.0875 21.0861 0.493446
ITEM: TIMESTEP
125
ITEM: NUMBER OF ATOMS
864
ITEM: BOX BOUNDS xy xz yz pp pp pp
-9.7367705980795777e-02 5.4228086856110501e+01 1.3588457687854980e+01
-9.6125795681884549e-02 3.1284427204649404e+01 1.3587339102616751e+01
-8.9714948275641027e-02 2.2098316894108670e+01 7.8446538884665067e+00
ITEM: ATOMS id type x y z f_grace_gamma
433 2 40.6694 7.95056 22.1898 1.95332
434 2 2.34468 0.905491 0.73784 2.34053
435 2 16.2501 24.7232 3.75701 2.8294
445 2 15.9619 11.4499 22.0221 2.63278
1 1 4.40812 2.55029 1.89213 0.426914
2 1 6.78041 3.70344 2.68633 0.475536
505 2 31.648 31.0928 21.8554 2.2089
506 2 6.62152 1.45765 1.02793 1.92236
507 2 20.222 24.5875 3.67648 1.68429
517 2 6.69347 3.98692 -0.0012686 2.09392
73 1 9.268 2.35715 1.98801 1.56368
74 1 11.3469 3.5979 2.9368 0.541333
577 2 22.6398 23.4037 0.337683 3.5608
578 2 11.2872 0.822371 1.44112 3.77881
579 2 25.0149 24.5725 3.7789 2.56003
589 2 11.2063 3.47883 0.293758 2.50361
145 1 13.6017 2.42677 1.85858 0.477536
146 1 15.7298 3.65209 2.8569 0.815986
649 2 26.9654 7.83551 22.0575 1.93624
650 2 15.8387 1.17917 0.887176 1.81738
651 2 29.5587 24.707 3.65258 1.63931
661 2 15.8562 3.8362 -0.1108 1.74675
217 1 18.0359 2.34512 1.65212 1.03468
218 1 20.3652 3.86103 2.37538 0.411499
722 2 20.5146 1.43411 0.627223 2.04966
723 2 20.3798 1.56425 3.63816 1.58591
289 1 22.679 2.63197 1.82293 0.601518
290 1 25.0626 3.76726 2.5097 0.546776
794 2 24.7416 1.33725 0.727531 1.57777
795 2 24.6296 1.17685 3.21195 3.07841
361 1 27.1691 2.70705 1.42329 0.775416
362 1 29.1437 3.80106 2.55053 1.74532
13 1 6.47718 6.16736 1.90986 1.59018
446 2 4.18948 5.20991 0.790371 1.36157
447 2 4.34109 5.11965 3.55537 2.20842
457 2 31.5115 7.6903 0.198887 1.40363
14 1 9.10664 7.65384 2.53863 1.36967
85 1 11.2661 6.30294 1.8048 0.483671
518 2 8.84779 5.12436 0.806363 1.36058
519 2 8.83304 4.9935 3.41112 1.77348
529 2 22.644 15.2554 21.8776 2.11323
86 1 13.4118 7.26525 2.46082 0.752278
157 1 15.8729 6.30507 2.02648 1.5267
590 2 13.4439 4.90688 0.748616 2.49184
591 2 13.4033 4.85967 3.91533 2.46129
601 2 27.2118 15.4283 22.0676 1.91694
158 1 18.1335 7.52256 2.7419 1.67575
229 1 20.5331 6.44217 1.67881 0.653125
662 2 18.1148 5.0307 0.755982 2.26206
663 2 18.0459 4.99301 3.5949 1.75162
673 2 31.6189 15.6652 22.1924 1.25455
230 1 22.6506 7.85318 2.44526 1.14454
301 1 24.7236 6.48658 1.7388 1.03791
734 2 22.498 5.04192 0.482839 1.80782
735 2 22.8049 5.04864 3.33319 2.61498
302 1 27.0391 7.95607 2.91169 0.458816
806 2 26.9174 5.49005 1.00647 2.3695
807 2 26.8608 5.33401 3.3877 2.58225
373 1 29.2207 6.55751 1.98123 1.37305
374 1 31.7353 7.84869 2.91847 1.2298
458 2 6.79159 9.09147 1.00044 2.17237
25 1 9.09039 10.2505 1.95999 1.09113
26 1 11.4603 11.552 2.62396 0.53892
470 2 9.22206 13.0952 1.02557 1.79224
471 2 9.31519 13.2553 3.65601 2.37157
530 2 11.1819 8.88812 0.907237 1.71354
531 2 11.2436 8.86226 3.66742 1.63839
541 2 25.1521 19.1451 21.9978 2.90686
97 1 13.5672 10.0831 1.53439 0.45222
98 1 15.6415 11.5274 2.48232 0.655307
542 2 13.4607 12.8276 0.99891 2.96568
543 2 13.2346 12.9547 3.83068 3.62033
602 2 15.763 8.75519 0.782128 1.85692
603 2 15.5224 8.60356 3.69233 1.57059
613 2 29.0773 19.1926 21.9808 2.51471
169 1 17.9134 10.5489 1.43816 0.697833
170 1 20.1905 11.47 2.40934 1.66656
614 2 17.9747 13.323 0.558452 1.61804
615 2 17.6626 12.9302 3.47308 3.11544
674 2 20.0508 9.14316 0.579045 2.46538
675 2 20.0951 8.98845 3.36362 2.30393
685 2 34.241 19.8292 22.1964 2.64415
241 1 22.5814 10.6126 1.79221 0.561662
242 1 24.8525 11.8899 2.93857 0.487864
686 2 22.7702 13.3232 0.781719 3.1262
687 2 22.3667 12.9419 3.51516 1.80323
746 2 24.8677 9.29835 0.940331 1.64753
747 2 24.6563 9.22919 3.63905 1.82916
313 1 26.9739 10.355 1.93929 1.20808
758 2 27.3423 12.9826 0.868651 1.95554
759 2 27.0881 13.149 3.76111 1.89359
314 1 29.5416 11.6432 2.72554 1.11684
385 1 31.8019 10.4732 1.84423 1.3801
818 2 29.0084 9.1133 1.1682 2.69314
819 2 29.2552 9.05365 4.09349 3.1572
830 2 31.8872 13.0613 0.774854 1.86069
831 2 31.7526 13.1187 3.55077 1.83412
386 1 34.1009 11.9061 2.96987 1.3977
459 2 7.09093 9.28699 3.83875 2.51467
469 2 7.13887 11.8357 0.0968674 2.48566
37 1 11.3824 14.3866 1.84485 1.09347
482 2 11.2835 16.7304 0.634603 1.57722
38 1 13.5343 15.6211 2.70749 0.54067
109 1 15.7011 14.2472 1.94242 1.66286
553 2 27.018 23.6057 21.8223 2.45119
554 2 15.5667 16.6988 1.09781 2.50892
555 2 15.5677 16.5976 3.83433 2.48717
110 1 17.9423 15.6377 2.57636 1.05552
181 1 20.2306 14.255 1.84857 1.04943
625 2 31.3562 23.8143 21.8242 2.70728
626 2 20.3458 17.0432 0.988643 1.81746
627 2 20.4566 16.9005 3.73859 1.95718
182 1 22.5043 15.4798 2.58198 0.549426
253 1 24.9355 14.3433 1.89956 0.560544
697 2 36.044 23.5108 22.2288 2.23385
698 2 24.7818 16.9216 1.04583 2.28686
699 2 24.89 16.8978 3.40858 2.33088
254 1 27.1926 15.5361 2.71284 1.71451
325 1 29.4781 14.2257 1.72514 1.08706
326 1 31.7794 15.6952 2.6536 0.509944
770 2 29.3679 17.0817 0.783113 1.81548
771 2 29.2148 16.8356 3.4393 1.65023
397 1 34.1189 14.4531 1.55667 0.535659
398 1 36.1204 15.741 2.56166 0.651313
481 2 36.2064 15.592 -0.180111 1.86827
842 2 33.8879 16.898 0.884091 1.98926
843 2 33.7978 16.952 3.49999 2.31784
483 2 11.5802 16.8255 3.72381 1.49351
493 2 24.9359 27.6636 21.9998 2.22032
49 1 13.5397 18.407 1.83418 1.51687
50 1 15.7086 19.5401 2.67147 1.3819
61 1 15.8145 22.2188 1.8652 1.05638
494 2 13.4362 20.6635 0.877631 2.09203
495 2 40.5469 21.2294 3.57005 2.58947
565 2 16.1381 19.6739 0.177091 2.94389
121 1 18.0473 18.254 1.72276 1.34774
122 1 20.1474 19.5106 2.71964 0.473074
133 1 20.3481 22.0185 1.73644 0.492451
566 2 18.1246 21.0336 0.701162 2.24962
567 2 17.965 21.0107 3.82265 2.21651
637 2 33.8903 27.286 21.8512 2.27593
193 1 22.6445 18.1153 2.09146 0.581871
194 1 24.7614 19.44 2.84065 0.759605
205 1 24.8233 21.7396 1.81988 1.82882
638 2 22.442 20.6091 1.05263 2.65099
639 2 22.2852 20.5781 3.87986 2.65393
709 2 25.0742 19.4049 -0.118729 1.88961
265 1 27.0658 18.2518 1.70789 1.33201
710 2 27.2831 20.9355 0.561177 2.07917
711 2 27.1102 20.649 3.53561 2.97925
266 1 29.4376 19.5657 2.6546 1.30003
277 1 29.7271 22.0249 1.50522 2.48641
337 1 31.5844 18.173 1.90409 0.66439
782 2 31.8604 20.5736 0.700083 2.16978
783 2 31.8634 20.702 3.43935 1.65868
338 1 33.9813 19.2375 2.36246 2.08487
349 1 33.9585 22.0077 1.68479 0.902396
409 1 36.3323 18.1765 1.65271 0.536742
854 2 36.2587 20.6984 0.987021 1.9927
855 2 36.0216 20.6869 3.62022 1.99134
410 1 38.3025 19.7072 2.5735 1.02688
421 1 38.3731 22.332 1.67565 1.09739
62 1 18.2682 23.4674 2.5664 0.519206
134 1 22.666 23.2586 2.8626 0.585877
206 1 27.3106 23.2521 2.45703 1.5677
278 1 31.7603 23.2762 2.53097 0.495465
350 1 36.1875 23.4394 2.69134 1.07755
422 1 40.8852 23.8325 2.58325 1.99352
3 1 6.8065 3.71921 5.43443 0.705391
436 2 4.60757 2.47488 4.83348 2.70661
437 2 45.1364 25.9215 7.33653 1.87226
438 2 6.62723 4.01483 8.05759 2.19418
75 1 11.2857 3.86379 5.52618 1.17683
508 2 8.95819 2.55998 4.62619 2.42183
509 2 9.21445 2.83656 7.26304 2.12609
510 2 11.3327 4.11646 8.19514 2.67533
147 1 15.7607 3.5927 5.72376 0.597919
580 2 13.6225 2.31225 4.7103 2.4883
581 2 27.2419 26.0913 7.39526 2.26678
582 2 15.9897 3.9534 8.27219 2.69472
219 1 20.2409 3.89972 5.33938 1.01534
652 2 18.0548 2.5879 4.61311 2.20026
653 2 31.4527 25.8258 7.29776 1.74328
654 2 20.2471 3.66887 8.18231 1.58135
291 1 24.7779 3.89202 5.27744 1.15546
724 2 22.7987 2.61212 4.46824 2.09566
725 2 36.1406 25.7968 7.07309 2.27506
726 2 24.7927 3.73267 7.93342 2.3174
796 2 27.0658 2.33577 4.10039 4.39208
797 2 40.3508 25.8157 7.05876 2.76175
363 1 29.4277 3.79205 5.32378 1.32812
798 2 29.2829 3.94686 8.01788 2.00217
448 2 6.6115 6.27565 4.48366 1.76642
449 2 33.68 6.56314 7.34804 1.93147
4 1 8.80977 5.24739 6.35108 0.945742
15 1 8.88452 7.7741 5.41125 0.869075
450 2 8.86835 8.04199 8.27092 2.01362
520 2 11.0349 6.28447 4.70887 1.66537
521 2 10.8467 6.61545 7.61603 1.72197
76 1 13.3941 5.25085 6.66455 1.338
87 1 13.4039 7.65645 5.47965 1.05964
522 2 13.4866 7.87236 8.37223 2.08929
592 2 15.8971 6.25423 4.70478 1.92369
593 2 15.8342 6.68694 7.52526 2.58052
148 1 17.939 4.95451 6.42916 0.409032
159 1 18.0852 7.64081 5.23512 0.672039
594 2 18.1015 7.74343 8.2838 2.0573
664 2 20.594 6.51617 4.22935 2.50467
665 2 20.1356 6.27276 7.13492 2.67595
220 1 22.315 5.10678 6.13957 0.580899
231 1 22.7067 7.78992 5.48491 1.18897
666 2 22.7651 7.93227 8.61871 1.53593
736 2 24.8202 6.70941 4.6217 1.82716
737 2 24.6083 6.20269 7.11745 2.60194
292 1 27.2359 5.07308 6.20073 1.27098
303 1 27.0871 7.85197 5.68403 1.5764
738 2 26.7807 7.61019 8.24236 2.2517
364 1 31.5765 4.93828 6.41496 1.34712
375 1 31.5882 7.97509 5.65324 1.33485
808 2 29.4761 6.52444 4.98742 2.19654
809 2 29.1393 6.4307 7.62263 2.14752
810 2 31.4551 7.99413 8.36723 2.63339
16 1 11.3882 9.01505 6.50113 1.17406
27 1 11.4333 11.8594 5.25367 1.94541
460 2 9.36076 10.3912 4.84383 1.30834
462 2 11.1064 11.6347 7.85661 2.7431
28 1 13.3584 13.0301 6.70237 1.89871
88 1 15.8437 9.08854 6.42684 1.7264
99 1 15.5294 11.4573 5.32696 1.47639
532 2 13.4109 10.2453 4.32186 2.1692
533 2 13.5855 10.1624 7.1322 2.2433
534 2 15.7061 11.8086 8.01985 2.38855
100 1 17.6627 12.9444 6.39746 1.39641
160 1 20.3081 9.06483 6.14259 2.2837
171 1 19.9998 11.8101 5.35747 1.13465
604 2 18.0568 10.2704 3.9849 1.51226
605 2 18.0083 10.0808 6.8011 1.82519
606 2 20.1314 11.8294 7.98541 2.13759
172 1 22.2911 12.768 6.26796 0.49265
232 1 24.7514 9.03125 6.6504 0.525811
243 1 24.5646 11.5714 5.57304 0.392498
676 2 22.3394 10.2571 4.50652 1.67902
677 2 22.3839 10.3691 7.41427 1.67374
678 2 24.6728 11.5332 8.42709 1.799
244 1 26.8974 13.0477 6.44181 1.31748
748 2 26.6365 10.3287 4.69865 2.07388
749 2 26.9193 10.7676 7.35296 2.67988
304 1 29.3574 9.1745 6.75311 0.683333
315 1 29.3156 11.4662 5.50669 1.25208
316 1 31.3431 13.141 6.58106 1.76396
750 2 29.3201 11.7382 8.38889 1.99948
820 2 32.0642 10.366 4.65987 2.9181
821 2 31.5772 10.7694 7.18204 2.32895
376 1 33.9412 9.08217 6.51605 0.593074
387 1 33.8082 11.8557 5.58231 1.05478
388 1 36.1622 13.2045 6.36017 1.05683
461 2 35.7527 10.5022 7.52405 1.90806
822 2 33.9028 12.0457 8.61841 3.69353
472 2 11.2432 14.573 4.75417 1.73471
39 1 13.7731 15.5902 5.46648 1.97511
40 1 15.8022 17.1185 6.46485 1.41428
474 2 13.4025 15.7099 8.1365 1.83519
544 2 15.4724 13.8461 4.74784 3.57047
545 2 15.8282 14.4732 7.4402 2.06065
111 1 17.7728 15.5015 5.48765 1.81779
112 1 20.2846 16.8525 6.39321 1.01071
546 2 18.0535 15.5224 8.14925 1.78373
616 2 20.2888 14.5682 4.50959 3.3813
617 2 20.486 14.473 7.36257 1.95012
183 1 22.4945 15.465 5.45802 0.415623
184 1 24.598 16.7732 6.28271 0.697613
618 2 22.8215 15.7485 8.20855 2.60269
688 2 24.7545 14.2103 4.73062 2.15875
689 2 24.4074 13.9918 7.47596 1.58398
255 1 26.7366 15.6119 5.38625 0.692464
690 2 26.6355 15.4343 8.05087 3.12138
256 1 29.1496 16.7647 6.17152 1.63189
327 1 31.467 15.6438 5.18531 0.578562
760 2 29.3659 14.11 4.49218 2.58866
761 2 29.3089 14.2741 7.34001 2.3175
762 2 31.2284 15.6979 8.03427 1.93557
328 1 33.7033 16.8493 6.33886 1.55613
399 1 35.9639 15.7502 5.31855 0.511292
832 2 33.9291 14.2392 4.34829 1.85269
833 2 33.792 14.3826 7.34995 1.74651
834 2 36.0679 15.733 8.10704 2.0636
400 1 38.1209 16.9792 6.33968 1.43017
473 2 11.1713 14.2334 7.26346 2.16075
51 1 15.8411 19.6716 5.32862 1.45482
484 2 13.5775 18.4462 4.43811 1.56585
486 2 15.8865 19.7874 8.59674 3.32467
496 2 15.6042 22.3023 4.71822 2.17043
52 1 18.0633 20.8889 6.5259 1.83245
123 1 20.2871 19.3801 5.3567 1.17621
556 2 17.9711 17.9586 4.35054 2.63443
557 2 18.3773 18.3879 7.56093 3.18044
558 2 20.5874 19.5015 8.41332 2.37593
568 2 20.4432 22.2482 4.35916 1.97459
569 2 20.4158 22.3744 7.41952 2.55566
124 1 22.4802 20.6884 6.49717 1.32811
195 1 24.7909 19.6493 5.44949 0.44892
628 2 22.4455 18.2666 4.61377 2.0766
629 2 22.6054 18.121 7.3001 1.89576
630 2 25.0058 19.3939 8.20222 2.57775
640 2 24.8619 22.2141 4.51194 2.65955
641 2 24.82 22.1956 7.39899 1.6504
196 1 26.7962 20.6259 6.63029 0.704388
700 2 27.1092 18.2518 5.01252 2.92563
701 2 26.733 17.7819 7.36249 2.83825
267 1 29.0582 19.7473 5.5687 2.00586
268 1 31.4549 20.6432 6.16117 0.545392
702 2 29.344 19.2409 8.0688 2.19005
712 2 29.4186 22.322 4.15543 3.02121
713 2 29.2057 21.9841 7.28527 2.93853
772 2 31.1524 18.4179 4.48921 3.51388
773 2 31.4432 17.9684 6.54541 2.60007
339 1 33.7599 19.5649 5.2417 1.66006
340 1 36.1713 20.8413 6.37427 0.573596
774 2 33.6417 19.1584 8.2875 1.38271
784 2 33.8089 22.164 4.50241 1.33727
785 2 33.9031 21.8763 7.20437 1.98319
844 2 36.0867 18.2943 4.48815 1.44563
845 2 35.7414 18.2173 7.20802 2.4611
411 1 38.4295 19.5783 5.4995 1.02246
412 1 40.702 20.829 6.0837 1.63989
485 2 13.7301 18.3264 7.21996 2.0688
846 2 38.0545 19.4165 8.19439 2.16765
856 2 38.1305 22.2127 4.34521 1.98407
857 2 38.3677 22.1071 7.34062 1.8923
497 2 15.9024 22.0566 7.50703 1.34284
63 1 18.2164 23.4445 5.54692 1.92819
64 1 20.5777 24.941 6.53798 1.3291
498 2 17.8872 23.3964 8.57872 1.44875
135 1 22.6542 23.1636 5.46621 0.509156
136 1 24.8327 24.6906 6.42385 0.695717
570 2 22.9051 23.7535 8.08051 2.67408
207 1 27.1611 23.3938 5.2325 2.05154
642 2 27.1908 23.332 7.81907 3.02864
208 1 29.2324 24.7159 6.35476 0.745439
279 1 31.3301 23.4054 5.3756 1.55585
714 2 32.0092 23.104 8.1432 3.13072
280 1 33.8084 24.5535 6.43843 1.2981
351 1 36.0314 23.4355 5.50588 0.460978
786 2 35.8238 23.2833 8.25565 1.88687
352 1 38.2954 24.6889 5.97184 1.56736
423 1 40.4927 23.5769 5.13911 0.552383
858 2 40.7066 23.368 8.17977 1.67596
424 1 42.6381 24.6827 6.53282 1.71793
439 2 6.97262 3.92452 10.7317 4.36026
511 2 11.1759 4.18203 10.9529 2.34098
583 2 15.7862 4.04986 10.8722 2.11879
655 2 20.1033 3.86443 10.9747 2.0305
727 2 24.3591 3.76552 11.0631 3.97788
799 2 29.0923 3.88057 10.7363 2.18455
5 1 8.84679 5.18422 9.29698 1.78385
6 1 11.6167 6.6011 10.3894 2.48178
7 1 11.4274 6.53086 12.917 0.506822
440 2 9.11731 5.37603 11.9277 2.03043
451 2 9.07636 7.65291 10.9022 1.96864
77 1 13.704 5.05527 9.35244 0.471377
78 1 15.7709 6.60703 10.1638 0.49265
79 1 15.5699 6.35075 12.9339 0.705542
512 2 13.3713 4.84703 12.2413 3.03156
523 2 13.8135 7.74287 11.2698 2.84564
149 1 18.0561 5.33797 9.08573 1.28982
150 1 20.4075 6.77564 9.86608 1.56228
151 1 20.1682 6.66245 12.8741 1.18197
584 2 18.0223 5.55047 11.7236 2.78776
595 2 18.2156 8.01182 11.1398 2.55216
221 1 22.4894 5.31374 8.86422 1.42223
222 1 24.9043 6.1438 10.0086 0.574557
223 1 24.6899 6.32615 12.609 1.76212
656 2 22.0717 5.18072 11.7606 1.72514
667 2 22.6466 8.16512 11.4228 3.30572
293 1 27.0725 4.90282 9.0233 1.55281
728 2 26.8395 5.22092 11.73 2.49993
739 2 26.7354 7.58201 10.8779 3.34986
294 1 29.1847 6.5456 10.2066 1.31461
295 1 29.2367 6.42223 12.8355 1.00667
365 1 31.5025 5.15076 9.2631 0.926516
800 2 31.1354 4.96093 11.7987 1.7331
811 2 31.7118 7.60335 11.1744 2.09708
366 1 33.8876 6.52845 9.98716 1.06185
367 1 33.7262 6.51173 12.8197 1.09589
17 1 11.1274 9.00638 9.19972 0.552923
452 2 11.3619 8.87093 12.1036 2.98374
463 2 11.4109 11.8388 10.7608 3.31131
18 1 13.4651 10.1283 10.025 2.1603
19 1 13.4575 10.4517 12.723 0.481561
29 1 13.5755 12.9153 9.35579 1.30356
89 1 15.7892 9.04882 9.11431 0.563268
464 2 13.5664 13.201 12.0454 2.00346
524 2 15.8817 8.6841 12.0804 3.33632
535 2 15.5187 11.2581 10.8936 2.1389
90 1 18.0663 10.4402 10.0072 1.0181
91 1 17.7583 10.2989 12.8579 1.31476
101 1 18.0564 13.229 9.17007 2.10841
161 1 20.2325 9.39806 9.46856 2.47997
536 2 17.4921 12.8402 11.6826 1.77175
596 2 20.3848 9.36409 12.1794 2.4441
607 2 20.3817 11.617 11.2283 2.07332
162 1 22.5326 10.4506 10.2116 0.555298
163 1 22.7908 10.4506 12.9304 0.480345
173 1 22.27 12.8081 9.04528 1.48416
233 1 25.0468 9.00988 9.49177 2.19253
608 2 22.3761 13.2585 11.9487 2.86022
668 2 24.9744 9.1205 12.3972 2.97209
679 2 24.8582 11.7745 11.1611 2.11165
234 1 27.1086 10.5706 10.1622 0.653414
235 1 27.172 10.642 12.9317 1.7125
245 1 26.9031 13.039 9.05941 0.416229
680 2 27.2625 13.1525 11.8933 2.54109
305 1 29.1609 9.1828 9.2051 0.528179
306 1 31.591 10.546 9.95209 1.24202
307 1 31.6456 10.445 12.8092 1.07462
317 1 31.526 13.1935 9.14095 0.5455
740 2 29.5074 9.08796 11.7974 2.30889
751 2 29.5827 11.6135 10.9357 2.51778
752 2 31.7393 13.0124 12.0175 1.999
377 1 33.8194 9.3616 9.12578 0.445067
378 1 36.2408 10.3306 10.0503 0.474262
379 1 35.9665 10.3394 12.9138 1.45887
389 1 36.2208 13.044 9.1671 0.97373
812 2 34.2338 9.01328 11.6153 3.03328
823 2 33.9151 11.469 11.2071 3.06743
824 2 36.1464 12.6837 12.1477 2.52813
30 1 15.6067 14.3076 10.1185 1.19169
31 1 15.6233 14.1971 13.0025 1.39715
41 1 15.7002 16.9912 9.17142 1.1282
476 2 15.8075 17.0186 12.0948 1.58103
102 1 20.3123 14.3952 9.99147 0.665424
103 1 19.9124 13.9733 12.6957 2.10566
113 1 20.3494 16.8597 9.06288 0.653745
547 2 17.7088 15.63 11.0305 2.3384
548 2 20.183 16.6602 11.7195 3.32833
174 1 24.702 14.2155 10.1786 1.50337
175 1 25.0217 14.1469 12.9361 0.742336
185 1 24.7172 17.0683 9.35455 0.79213
619 2 22.6341 16.0723 10.8867 3.84764
620 2 25.1545 16.7049 11.91 2.67136
691 2 27.1299 15.5332 10.8238 2.38127
246 1 29.2621 14.2982 10.1493 0.444498
247 1 29.2222 14.1822 12.7939 0.61015
257 1 29.0874 16.8082 9.13662 1.30232
692 2 29.2906 16.6695 11.5985 2.72409
763 2 31.6525 15.6166 10.8217 1.8805
318 1 33.8756 14.1342 10.0918 0.660876
319 1 33.9119 14.271 12.7403 0.656724
329 1 33.7631 16.6621 9.28532 1.42822
764 2 33.7326 17.1594 12.1164 3.02233
835 2 35.8184 15.6054 11.044 2.45054
390 1 38.2605 14.4639 10.1286 1.42603
391 1 38.2908 14.519 12.7264 1.52124
401 1 38.4101 16.9307 9.11772 1.65096
475 2 40.6115 15.6936 11.1995 1.84967
836 2 38.2745 17.0065 11.616 2.72917
42 1 18.0287 18.1766 10.0321 0.576022
43 1 18.1926 18.0461 12.8819 1.42881
53 1 18.1942 20.5914 9.41488 0.656191
54 1 20.2074 22.1974 10.098 0.927323
55 1 20.3495 22.2647 13.179 1.64114
488 2 18.1015 21.197 12.1198 1.55067
559 2 20.1913 18.9764 11.007 3.39414
114 1 22.6562 18.4848 10.1293 0.945697
115 1 22.2171 17.9972 12.7981 0.793289
125 1 22.4899 21.0558 9.259 1.53305
126 1 24.7226 22.5924 10.2778 2.46896
127 1 24.7577 22.005 13.0067 0.612784
560 2 22.1901 20.382 11.9088 3.6915
631 2 24.6699 19.271 11.2044 3.15339
186 1 26.8673 18.3414 10.0659 0.574519
187 1 27.095 18.2591 12.9692 0.955237
197 1 27.1049 20.8691 9.20056 1.30508
632 2 27.1501 20.8743 11.8903 3.36248
198 1 29.3477 22.0795 10.0162 1.00832
199 1 29.4778 22.3868 12.9222 1.26593
258 1 31.4302 18.2033 9.92207 1.10771
259 1 31.4078 18.2252 12.768 1.20414
269 1 31.4494 20.7497 8.84197 1.5659
703 2 29.4083 19.3272 10.9629 1.69606
704 2 31.7116 20.7145 11.7872 1.87224
270 1 33.7448 22.1468 10.0043 1.06978
271 1 33.8856 22.1305 12.8444 0.424382
330 1 36.0956 18.1486 9.75609 0.564817
331 1 36.0665 18.2083 12.7021 1.13897
341 1 36.0417 20.7802 9.04608 0.885449
775 2 34.0603 19.5422 10.9787 1.30016
776 2 36.0927 20.8527 11.9691 2.0565
342 1 38.4558 22.172 9.97118 0.407174
343 1 38.4416 22.2186 12.9229 1.08522
402 1 40.6934 18.4721 9.94914 1.03871
403 1 40.4352 18.3727 12.8128 1.75609
413 1 40.4765 20.8951 9.00056 0.463527
847 2 38.4616 19.4883 10.9113 1.69431
848 2 40.5592 21.0175 11.898 2.04531
414 1 42.656 21.9559 10.2579 2.20243
415 1 42.7267 21.8322 12.9613 0.609685
487 2 15.7057 19.5931 11.3123 2.08076
65 1 20.3658 24.8223 9.16847 1.13368
500 2 20.0791 24.6131 11.9236 1.71009
66 1 22.6489 26.1211 10.1371 1.171
67 1 22.6586 26.1189 12.8971 1.88108
137 1 25.1303 24.9185 9.10194 0.626581
571 2 22.3618 23.0011 11.3501 1.95739
572 2 24.8319 25.126 11.4897 4.1523
138 1 27.0726 26.2093 10.394 0.609073
139 1 27.1319 25.8538 12.9473 0.713372
643 2 27.0916 23.4667 10.6407 2.85415
209 1 29.1624 24.8034 8.93517 1.44697
210 1 31.6154 26.0113 9.91229 1.09552
211 1 31.7262 26.1404 12.6866 1.1175
644 2 29.3411 24.7643 11.7291 1.85555
715 2 31.4548 23.3982 11.1686 1.88087
281 1 33.968 24.7536 9.30432 0.688654
282 1 36.1623 26.0045 9.89858 0.504223
283 1 36.0903 26.2108 12.5656 1.58539
716 2 33.8611 24.8174 12.0212 2.01675
787 2 36.2997 23.6817 11.1179 1.1657
353 1 38.4589 24.6418 8.97835 0.969168
354 1 40.7649 25.9152 9.68811 0.805757
355 1 40.8158 25.9893 12.5647 2.23947
788 2 38.399 24.7138 12.0174 1.7801
859 2 40.608 23.4801 10.8867 2.13266
425 1 42.9284 24.6019 9.12242 0.423348
426 1 45.0201 26.1262 10.1664 1.13376
427 1 45.2513 25.9479 12.8171 1.58705
499 2 45.0056 23.4149 11.0253 1.77295
860 2 42.8911 24.5571 12.0043 1.93667
441 2 36.0617 5.50246 14.9444 2.84603
442 2 11.1183 6.46683 15.976 2.64513
8 1 13.529 7.77181 13.8242 0.731431
9 1 13.3954 7.75882 16.3936 0.657652
513 2 27.0209 28.698 15.002 2.83318
514 2 15.9783 6.64983 15.7979 2.36234
80 1 17.9748 7.63514 13.8218 0.549919
81 1 17.9033 7.9554 16.6064 0.62666
585 2 31.464 28.3928 14.4418 2.77661
586 2 19.8782 6.51483 15.5647 2.609
152 1 22.6752 7.98387 13.8855 0.576729
153 1 22.6016 7.6481 16.3427 0.737928
657 2 22.414 5.29083 14.7564 2.86772
658 2 24.8806 6.872 15.3004 3.30605
224 1 27.0446 7.69503 13.7028 1.23242
225 1 27.0028 7.74174 16.3396 0.687341
729 2 40.3245 28.8216 15.0129 3.57467
296 1 31.8301 7.92639 13.7163 1.45048
297 1 31.4468 7.93091 16.733 0.578416
730 2 29.5663 6.63843 15.4748 2.37747
801 2 31.6598 5.21672 14.3511 2.47536
368 1 36.114 7.79798 13.7155 0.391654
369 1 35.9374 7.95817 16.4185 1.30616
802 2 33.8996 6.45902 15.4356 1.12836
453 2 38.5003 8.74668 14.8491 2.3335
10 1 15.5857 9.02007 17.3572 1.10136
20 1 15.7144 11.5768 13.7739 0.510625
21 1 15.7277 11.6444 16.4849 1.0724
454 2 13.3994 10.4146 15.4138 1.90626
525 2 15.6615 8.8006 14.4236 2.54678
22 1 18.0398 12.9227 17.5283 1.08124
82 1 20.1412 9.19414 17.5883 1.54328
92 1 20.219 11.7095 13.9323 1.49701
93 1 20.2226 11.763 16.6285 0.932804
526 2 18.0127 10.3125 15.6522 1.26981
537 2 17.9861 12.7056 14.5833 2.3133
597 2 20.3134 9.07825 14.8403 2.1235
94 1 22.4089 12.7613 17.4164 1.56723
154 1 24.7026 8.76985 17.6378 2.48164
164 1 24.6458 11.8771 13.9137 0.57534
165 1 24.7715 11.4586 16.6304 1.12702
598 2 22.299 10.7649 15.5721 3.96694
609 2 22.8342 13.4602 14.7485 3.41949
669 2 25.2172 9.11678 14.938 3.73683
166 1 26.7944 12.9745 17.4147 0.500144
670 2 27.1087 10.4377 15.8328 2.32954
681 2 26.9442 12.7889 14.8143 2.25555
226 1 29.0989 8.98051 17.22 1.16886
236 1 29.3362 11.6527 13.7149 0.677878
237 1 29.1785 11.8439 16.3747 1.41641
238 1 31.5735 13.1171 17.3453 0.965039
741 2 29.4529 8.86978 14.4668 2.19121
742 2 31.644 10.4935 15.6196 1.83199
753 2 31.1569 12.8306 14.8687 4.23967
298 1 33.6577 9.11352 17.5959 0.53808
308 1 33.9321 11.9008 13.8012 1.36682
309 1 33.8189 11.7178 16.6503 1.13996
310 1 36.245 13.1345 17.4606 0.499445
813 2 33.8048 9.42146 14.8121 1.76117
814 2 36.1292 10.5786 15.6867 1.78447
825 2 36.5025 13.2226 14.7436 2.21396
370 1 38.4889 9.06626 17.4359 0.354722
380 1 38.4181 11.7039 13.7104 1.28128
381 1 38.3863 11.6746 16.5961 0.37226
382 1 40.5088 12.9747 17.3683 1.21924
465 2 13.4329 12.5814 14.631 2.99929
466 2 15.5917 14.1838 15.7935 2.42132
32 1 17.7955 15.5466 13.827 1.33154
33 1 17.9991 15.6328 16.6147 1.04793
34 1 20.1269 17.0138 17.3988 1.33411
538 2 20.2199 14.2248 15.378 2.71845
549 2 20.1376 16.8991 14.2732 3.92983
104 1 22.4293 15.5005 13.3568 2.08093
105 1 22.6713 15.4101 16.3067 2.43676
106 1 24.8146 16.9378 17.5681 0.540154
610 2 25.0396 14.2815 15.6763 2.68238
621 2 24.7473 16.8166 14.9011 1.49859
176 1 27.0532 15.4662 13.5841 0.576277
177 1 27.0641 15.5823 16.3966 1.76435
178 1 29.3684 16.7358 17.2732 0.467438
248 1 31.6139 15.4387 13.689 1.0541
249 1 31.59 15.7533 16.5125 0.541019
682 2 29.1608 14.5333 15.4196 2.06549
693 2 29.4262 16.9112 14.4278 2.16207
250 1 33.7482 17.046 17.2766 0.610875
320 1 35.9249 15.6749 13.8075 0.368131
321 1 36.2519 15.6386 16.5026 0.488712
754 2 33.7728 14.5124 15.571 2.52592
765 2 33.7849 17.0704 14.5441 2.29751
322 1 38.349 17.0849 17.5767 0.434312
392 1 40.6862 15.6187 13.9281 1.51149
393 1 40.5492 15.8312 16.7309 0.468982
826 2 38.801 14.3569 15.2708 1.87004
837 2 38.3284 16.9156 14.33 2.76336
394 1 42.7663 16.7456 17.8629 0.666773
477 2 16.0204 17.0884 15.3682 4.72587
44 1 20.1881 19.585 13.7717 1.43507
45 1 20.3476 19.4791 16.7365 0.672201
478 2 17.8632 18.3919 16.3711 4.24388
490 2 20.1494 21.7664 15.7213 2.42887
46 1 22.3758 20.853 17.6285 1.09996
116 1 24.7033 19.4528 13.6996 1.4744
117 1 24.8164 19.4454 16.7574 0.61463
550 2 22.3044 18.1856 15.8491 1.38239
561 2 22.53 20.5117 14.6628 2.4923
562 2 24.6037 21.6972 15.605 2.90465
118 1 26.9229 20.6945 17.4865 0.817234
622 2 26.9788 18.3659 15.6216 2.15717
633 2 27.0719 20.7837 14.9191 1.85555
188 1 29.4344 19.6249 13.7618 1.11735
189 1 29.266 19.3791 16.8781 1.68752
190 1 31.5707 20.8451 17.3731 1.15343
634 2 29.2694 21.911 15.6653 1.46557
694 2 31.6145 18.2614 15.6866 1.63779
705 2 31.6976 20.8217 14.2993 2.62748
260 1 33.9898 19.6421 13.7966 0.634626
261 1 33.9777 19.5766 16.407 0.58441
262 1 36.0557 20.8559 17.4064 0.6015
706 2 33.7871 22.1702 15.5873 2.13012
766 2 36.0041 18.0763 15.3875 2.30188
777 2 35.9845 20.8164 14.968 3.27451
332 1 38.2439 19.6078 13.7758 0.493092
333 1 38.3049 19.6671 16.6839 1.383
334 1 40.8134 20.83 17.4832 1.38854
778 2 38.2585 22.1007 15.5412 2.05792
838 2 40.5248 18.0596 15.2967 2.93998
849 2 40.764 20.6823 14.4901 2.75551
404 1 42.9411 19.4294 14.0462 1.79621
405 1 42.6713 19.2859 16.6148 0.5597
406 1 45.1063 20.6215 17.5235 1.76045
489 2 45.1204 20.7628 14.9159 2.2575
850 2 42.9448 22.4415 16.0072 3.49147
56 1 22.5236 23.2904 14.0686 2.08282
57 1 22.3854 23.6205 16.7126 2.07614
58 1 24.841 24.7333 17.3281 1.00631
502 2 22.6103 26.3988 15.2164 4.07551
573 2 24.8509 24.4622 14.6563 3.34936
128 1 26.9383 23.2802 13.7787 2.14389
129 1 27.0085 23.5224 16.3548 0.594372
574 2 27.2083 26.0538 15.7366 2.01028
130 1 29.1397 24.8071 17.4085 1.0756
200 1 31.7121 23.6076 13.7706 1.27541
201 1 31.5144 23.4635 16.6109 1.36589
645 2 29.0867 24.7189 14.6622 1.73733
646 2 31.4216 25.8443 15.415 1.47217
202 1 33.9116 24.836 17.3459 0.633132
272 1 36.1556 23.256 13.8705 0.607885
273 1 36.0062 23.5919 16.452 0.552467
717 2 34.0389 24.8005 14.5772 1.45735
718 2 36.2768 26.0541 15.761 1.48933
274 1 38.33 24.5716 17.7208 1.67223
344 1 40.7606 23.7025 13.7876 0.591786
345 1 40.5341 23.2671 16.4861 1.46674
789 2 38.2981 24.6137 14.8769 2.14848
790 2 40.3625 26.2898 15.2625 1.98246
346 1 43.1186 24.5947 17.6796 1.76639
416 1 44.9938 23.4221 13.7922 1.29786
417 1 45.2799 23.4004 16.6119 0.629047
861 2 42.7506 24.7917 15.0449 2.7936
862 2 45.2358 25.8677 15.7312 2.14709
418 1 47.2778 24.8505 17.5083 0.549865
501 2 20.1231 24.4004 14.7618 2.44255
68 1 24.9686 27.2485 13.7577 1.18834
69 1 24.8959 27.5387 16.5509 1.08684
70 1 27.128 28.8006 17.6443 0.472838
140 1 29.2269 27.2991 13.7498 1.09148
141 1 29.2948 27.3984 16.7581 1.03259
142 1 31.5995 28.7679 17.5332 0.959929
212 1 33.8031 27.4988 13.6061 0.546951
213 1 33.8591 27.6071 16.3645 0.593668
214 1 36.1265 28.7239 17.3768 0.678283
284 1 38.5402 27.2799 13.6397 1.36245
285 1 38.5769 27.4499 16.5252 1.7467
286 1 40.726 28.6895 17.4845 1.90302
356 1 42.7928 27.3158 13.8455 1.4891
357 1 43.0482 27.4109 16.5217 1.19873
358 1 45.0621 28.7889 17.2851 1.14953
428 1 47.5577 27.2043 13.7969 1.27335
429 1 47.444 27.3294 16.3917 1.22059
430 1 49.8118 28.75 17.52 1.48299
443 2 24.8709 29.8861 18.6498 2.56915
444 2 13.5271 7.71331 19.0561 2.07644
515 2 15.8662 6.46901 18.1959 2.33958
516 2 18.1314 7.61444 19.4061 2.17888
587 2 20.4495 6.52157 18.3581 1.96983
588 2 22.751 7.84243 19.5127 2.82023
659 2 24.8897 6.22332 17.8518 3.01061
660 2 26.9839 7.65549 19.0524 2.93101
721 2 31.7885 23.4172 -0.0510653 2.23112
731 2 43.1255 30.2522 18.5541 2.72358
732 2 31.8599 7.71236 19.7153 3.72348
793 2 49.4928 31.0977 22.1205 2.16557
803 2 33.9898 6.47434 18.5171 1.98135
804 2 36.3492 7.50684 19.3086 2.24799
11 1 15.9452 8.93663 20.2475 1.09974
455 2 40.7048 10.4566 18.3653 1.61458
456 2 15.6673 11.7997 19.1041 2.45958
12 1 18.2218 10.1747 21.2754 1.28807
23 1 17.8972 12.8184 20.2522 1.33568
83 1 20.3285 8.85767 20.2352 0.430877
527 2 17.9667 10.0769 18.4954 2.31846
528 2 20.1029 11.4893 19.5774 2.22633
84 1 22.6199 10.2752 21.073 1.31729
95 1 22.3094 12.8398 20.2654 1.36008
155 1 24.8462 9.07701 20.7119 0.809755
599 2 22.6549 10.458 18.6945 2.78124
600 2 24.8984 11.3507 19.7489 3.17126
156 1 27.1741 10.4876 21.2711 0.41958
167 1 26.9198 12.7361 20.1523 0.655443
671 2 26.6609 10.4227 18.4559 3.401
227 1 29.359 8.97574 20.2828 1.16035
228 1 31.7527 10.3787 21.0633 0.912014
239 1 31.345 12.9191 20.1285 1.49523
672 2 29.067 11.4293 19.0246 1.39869
743 2 31.297 10.1101 18.5276 2.4166
299 1 34.0914 8.97213 20.1993 1.09318
300 1 36.36 10.3606 21.0457 0.870668
311 1 36.1315 12.9308 20.0083 1.24724
733 2 34.1393 11.8102 21.8716 2.7706
744 2 33.5903 11.9369 19.2832 2.02262
815 2 36.0016 10.4074 18.245 2.2933
371 1 38.4315 8.97552 20.1006 0.566965
372 1 40.6853 10.4616 21.0511 1.71349
383 1 40.5906 13.037 20.2072 0.501033
805 2 38.3996 11.8426 21.9959 1.57463
816 2 38.4265 11.8497 19.2711 1.72298
24 1 20.0046 14.3475 21.1799 1.34456
35 1 20.263 16.772 20.331 0.789734
468 2 17.9142 15.5548 19.7893 2.48851
539 2 20.3433 14.3685 18.3081 2.66721
96 1 24.8271 13.9212 20.9884 1.52661
107 1 24.7969 16.4804 20.1877 0.557025
540 2 22.7927 15.4137 19.3588 1.42439
611 2 24.7167 13.9901 18.2782 2.04246
612 2 27.1542 15.3512 19.2971 2.61251
168 1 29.2491 14.2011 21.0877 1.26841
179 1 29.5144 16.7759 20.1953 0.51942
683 2 29.4677 14.2484 18.3738 2.12514
684 2 31.9397 15.5975 19.314 1.80907
240 1 33.98 14.3566 21.1175 0.621835
251 1 34.1345 16.6819 20.1072 0.633539
745 2 35.9098 15.708 22.0335 3.18659
755 2 34.0507 14.2104 18.2432 1.85056
756 2 36.3034 15.5505 19.0433 1.96043
312 1 38.5028 14.4333 21.0789 1.21809
323 1 38.4209 17.0877 20.3854 1.22249
817 2 26.6709 7.80771 -0.116713 2.90107
827 2 38.5385 14.297 18.1432 2.29015
828 2 40.5354 15.6531 19.2623 2.039
384 1 42.5721 14.3292 21.4781 1.33937
395 1 42.9221 16.9056 20.5732 0.963494
467 2 42.9684 14.4091 18.7284 2.18697
480 2 20.2539 19.5049 19.4909 1.58919
36 1 22.6735 17.9941 21.3604 0.905226
47 1 22.5383 20.6551 20.3401 1.16254
48 1 24.7921 21.9185 21.2083 0.877641
551 2 22.3473 18.0858 18.4754 1.71405
552 2 24.6428 19.2919 19.3766 1.92363
563 2 24.9423 22.0057 18.3952 1.58642
108 1 27.2293 17.7563 21.1102 0.784747
119 1 26.8863 20.4672 20.2891 0.715273
623 2 27.3616 18.2422 18.4075 2.417
120 1 29.0264 22.0334 21.329 1.37826
180 1 31.857 18.0354 21.1228 1.57656
191 1 31.708 20.9923 20.0585 1.94735
624 2 29.2995 19.5669 19.483 3.28785
635 2 29.0174 21.7475 18.7522 1.71529
695 2 31.4478 18.0711 18.2917 2.6922
192 1 33.6715 22.4631 21.251 1.46675
252 1 36.0572 18.2793 21.2376 1.2805
263 1 35.8918 20.8499 20.2428 1.36597
696 2 33.401 19.2114 19.1903 1.71225
707 2 33.8069 22.1626 18.5179 2.14874
767 2 36.0542 18.2508 18.0761 2.2252
264 1 38.4872 22.1278 21.2467 1.10592
324 1 40.7743 18.2706 21.3088 0.42775
335 1 40.6514 20.8133 20.3848 0.446516
757 2 24.6883 11.8885 0.11516 1.62389
768 2 38.2357 19.417 19.1862 2.44927
779 2 38.7186 21.7747 18.4974 1.99942
839 2 40.5198 18.1163 18.4941 1.73348
336 1 42.8898 22.072 21.1318 0.44625
396 1 45.3683 18.252 21.4555 1.41233
407 1 45.1399 20.7825 20.4865 0.997583
479 2 45.1393 17.881 18.7918 2.49859
829 2 29.2726 11.6401 0.254251 1.82541
840 2 42.8496 19.3667 19.436 2.54205
851 2 43.0987 22.31 18.66 3.37147
408 1 47.4923 22.0993 21.1727 0.498277
491 2 47.2744 22.1108 18.2712 2.22844
59 1 24.8965 24.6849 20.0896 1.61309
492 2 22.6743 23.2821 19.4234 1.83828
503 2 22.7227 26.3008 18.1608 2.19952
60 1 27.2784 26.2193 21.2652 0.532279
564 2 26.924 23.3662 19.3256 1.50466
575 2 27.0544 25.9539 18.5955 1.6511
131 1 29.2015 24.5574 20.371 1.58898
132 1 31.596 26.2608 21.2467 0.704401
636 2 31.664 23.8321 19.2424 1.49075
647 2 31.9728 26.2881 18.1628 2.61191
203 1 33.7255 25.1633 20.1965 1.55708
204 1 36.2398 26.1465 21.4874 1.54541
708 2 36.1102 23.3957 19.3113 1.8197
719 2 36.0641 26.2294 18.0324 3.16412
275 1 38.4451 24.8603 20.532 1.46877
276 1 40.7425 26.1456 21.0755 1.24216
769 2 27.0914 15.5861 0.235624 1.65145
780 2 40.7724 23.4613 19.586 2.38862
791 2 40.8949 26.1081 18.3491 1.63945
347 1 43.2019 24.8862 20.3987 1.6587
348 1 45.3236 26.0169 21.3844 0.462214
841 2 45.1398 23.1678 22.0975 2.11176
852 2 45.2723 23.2983 19.3439 1.72872
863 2 45.4532 26.2863 18.3263 2.26573
419 1 47.3521 24.604 20.2117 0.498172
420 1 49.7047 25.8667 21.042 0.951156
504 2 24.9948 27.2128 19.0476 2.90898
71 1 26.8727 28.581 20.4483 0.677375
72 1 29.1657 30.0235 21.0545 1.60929
143 1 31.694 28.6318 20.2645 0.530953
576 2 29.2235 27.3866 19.4439 2.54887
144 1 33.8797 29.8104 21.1594 0.515538
215 1 36.0932 28.772 20.1828 1.29604
648 2 34.0844 27.4608 18.9759 2.51734
216 1 38.3478 30.0465 20.9836 1.60055
287 1 40.5484 28.7389 20.2202 1.29351
720 2 38.0762 27.4219 19.3609 2.04371
288 1 42.9093 29.991 21.1579 1.18191
359 1 45.3518 28.7299 20.2837 1.30771
781 2 29.5495 19.2771 -0.348414 2.28244
792 2 43.2359 27.5277 19.0987 2.52586
360 1 47.5214 29.8607 21.1371 0.491611
431 1 49.8741 28.5649 20.2979 0.652772
853 2 47.7948 27.2605 21.9454 1.918
864 2 47.7788 27.1044 19.1306 1.53177
432 1 51.9833 30.2121 21.1371 0.558975
ITEM: TIMESTEP
150
ITEM: NUMBER OF ATOMS
864
ITEM: BOX BOUNDS xy xz yz pp pp pp
-1.4683814536701253e-01 5.4383620113700928e+01 1.3641987099666522e+01
-1.4248362616031543e-01 3.1361115211450098e+01 1.3639872509009432e+01
-1.3260829497975743e-01 2.2141210240812796e+01 7.8749840647887712e+00
ITEM: ATOMS id type x y z f_grace_gamma
433 2 27.1567 -0.315847 0.0800306 2.80548
434 2 2.4861 1.13824 0.689483 2.81104
435 2 16.0423 24.9311 3.51398 2.83166
445 2 15.6144 11.4923 21.9041 1.5946
1 1 4.53102 2.6927 1.96425 1.71209
2 1 6.83695 3.57562 2.66986 0.63274
505 2 32.0018 31.2672 22.0536 2.34924
506 2 6.74721 1.29633 0.757062 1.52394
507 2 20.3461 24.819 3.73344 1.51385
517 2 6.87032 3.86086 -0.126833 1.88593
73 1 9.09325 2.23469 1.82303 0.590218
74 1 11.4066 3.64473 2.74177 0.59357
577 2 22.6343 23.5549 0.221781 3.2605
578 2 11.57 0.806036 1.53536 4.23943
579 2 24.9656 24.9313 3.82813 2.16978
589 2 11.0168 3.58934 0.104556 2.57759
145 1 13.4565 2.3499 1.95523 0.602884
146 1 15.677 3.6808 2.85296 1.25637
649 2 26.9032 7.76308 21.9302 2.88141
650 2 15.8718 0.916983 1.13382 2.67899
651 2 15.6179 1.27798 3.53234 1.98797
661 2 29.4801 11.7131 22.1536 2.63699
217 1 18.0633 2.20715 1.56752 1.70536
218 1 20.3467 3.86057 2.32805 1.51461
722 2 20.4886 1.26205 0.700208 1.24864
723 2 20.5916 1.43241 3.55448 1.64265
289 1 22.7611 2.60425 1.64573 1.09122
290 1 25.0414 3.78469 2.51692 0.491284
794 2 24.7942 1.25568 0.41716 2.27892
795 2 24.9345 1.07795 3.30813 2.34742
361 1 27.2566 2.47405 1.55791 0.776463
362 1 29.2359 3.55327 2.62587 0.965365
13 1 6.61391 6.14368 1.91729 1.40632
446 2 4.41473 5.00427 0.671736 2.56078
447 2 31.4546 5.17265 3.47123 2.52446
457 2 31.3708 7.52168 0.204378 3.81512
14 1 9.07312 7.52274 2.57289 0.598149
85 1 11.3157 6.14376 1.74224 0.920335
518 2 9.22794 4.94548 0.864773 3.0078
519 2 8.87171 5.04007 3.36329 2.72177
529 2 22.6529 15.3393 22.1793 1.40725
86 1 13.6911 7.45898 2.3394 0.882156
157 1 15.9135 6.31976 1.93417 0.545131
590 2 13.4029 4.9919 0.904168 2.43574
591 2 13.6516 5.2104 4.12811 3.61411
601 2 13.236 7.37316 -0.133958 3.18221
158 1 17.9073 7.71053 2.67014 1.86703
229 1 20.2105 6.44086 1.59469 1.20483
662 2 17.8981 5.33531 0.491146 2.87879
663 2 18.041 5.09776 3.48437 2.23062
673 2 18.3571 7.72545 0.0829071 1.68368
230 1 22.5712 7.75268 2.71246 1.26839
301 1 24.7748 6.47376 1.75285 0.962004
734 2 22.6939 5.22365 0.574518 2.69111
735 2 22.9075 4.89021 3.48689 3.00754
302 1 26.9597 8.05233 2.77762 1.53078
806 2 27.1779 5.39914 0.794708 2.14788
807 2 27.1661 5.2713 3.76412 2.34379
373 1 29.501 6.43076 1.97399 1.52723
374 1 31.768 8.04499 2.74089 1.74563
458 2 6.72015 8.91321 0.851057 2.01113
25 1 9.10499 10.2448 1.8632 1.06674
26 1 11.4884 11.5612 2.50659 0.600108
470 2 9.40331 12.896 0.961178 2.78211
471 2 9.46831 12.9494 3.89782 3.20254
530 2 11.1976 8.48361 0.892896 2.41617
531 2 11.2319 8.90431 3.68572 2.81676
541 2 25.0505 19.2258 22.1348 2.51508
97 1 13.3681 10.0644 1.61208 0.712992
98 1 15.5435 11.2612 2.62224 2.08814
542 2 13.544 12.9878 0.960663 2.7961
543 2 13.3389 13.0622 3.6553 1.66155
602 2 16.0549 8.77855 0.882877 2.88652
603 2 15.2603 8.72294 3.66824 2.95239
613 2 29.5616 19.4609 22.1714 1.45449
169 1 18.0702 10.5043 1.37956 1.80095
170 1 20.322 11.325 2.41919 1.05369
614 2 17.8404 13.4713 0.606845 2.1266
615 2 17.7127 13.2563 3.63041 1.37111
674 2 20.306 9.3964 0.662436 3.04557
675 2 20.3199 8.98218 3.48385 3.57104
685 2 20.7238 12.1355 -0.166805 4.0827
241 1 22.5862 10.5148 1.67276 0.594659
242 1 24.8581 11.8896 2.88799 1.88901
686 2 22.8091 13.3187 0.555563 1.60931
687 2 22.5895 13.0825 3.43749 1.6552
746 2 24.6699 8.91713 0.895681 2.14642
747 2 24.53 9.2504 3.4764 1.61513
313 1 27.033 10.6336 1.76899 0.740023
758 2 27.0531 12.8195 0.968177 2.64038
759 2 27.1635 12.7257 3.62332 3.12231
314 1 29.5386 11.6569 2.8934 1.64382
385 1 31.738 10.3426 1.75741 0.806747
818 2 29.3177 8.84948 1.14142 2.56891
819 2 29.2719 9.2574 3.68039 2.14302
830 2 31.9292 13.2404 0.958016 2.69066
831 2 31.6623 12.7724 3.54583 1.50716
386 1 34.1435 11.7805 2.80124 1.49631
459 2 7.15275 9.15806 3.37321 2.67272
469 2 6.86706 12.0576 0.316347 3.59357
37 1 11.146 14.4488 1.8062 0.636015
482 2 11.3524 17.1957 0.893157 2.25513
38 1 13.4399 15.4628 2.40893 0.687016
109 1 15.5829 14.1876 1.8717 0.864563
553 2 26.8341 23.4574 21.8982 2.97219
554 2 15.5495 16.6254 1.17274 3.66061
555 2 15.4749 16.6266 3.81465 2.84847
110 1 17.9222 15.8588 2.63442 1.92358
181 1 20.1588 14.1068 1.78962 1.40546
625 2 31.5819 23.6119 22.0766 1.38781
626 2 20.3565 16.8651 0.82491 2.04488
627 2 20.382 16.7425 3.3166 2.49444
182 1 22.4491 15.429 2.62101 0.674664
253 1 24.9266 14.4547 1.69777 0.665805
697 2 22.5472 15.7735 -0.100545 2.48734
698 2 24.8594 16.9921 0.702531 2.23274
699 2 24.7356 16.7514 3.61272 2.73366
254 1 27.328 15.3606 2.73146 1.7578
325 1 29.7307 14.3565 1.50247 2.16639
326 1 31.9121 15.5547 2.51536 2.11154
770 2 29.1568 16.9417 0.869836 1.65565
771 2 29.7386 16.7924 3.42822 2.78567
397 1 34.2519 14.4457 1.62342 1.78983
398 1 36.4015 15.8253 2.48326 0.75639
481 2 22.8613 23.4078 21.9845 2.58333
842 2 33.9525 16.8272 0.391564 4.13383
843 2 33.8873 16.806 3.48148 2.45037
483 2 11.3563 17.1927 3.85097 1.54969
493 2 51.8654 27.3338 22.0343 2.42313
49 1 13.5823 18.2624 1.72234 1.54544
50 1 15.7543 19.5301 2.64237 1.42423
61 1 15.8125 22.1895 1.82699 1.18034
494 2 13.4759 20.9696 1.28139 3.07964
495 2 40.7811 21.4634 3.38702 3.48836
565 2 15.6859 19.6028 -0.0259986 2.46174
121 1 18.1663 18.3266 1.74799 1.62085
122 1 20.1759 19.6484 2.7546 1.40127
133 1 20.3379 21.9587 1.53321 1.58949
566 2 17.9973 20.9212 0.703664 2.81078
567 2 17.896 20.8434 3.7456 2.44478
637 2 33.9811 27.3754 21.9723 2.59937
193 1 22.6072 18.1504 1.95519 0.671995
194 1 24.7133 19.2475 2.79676 0.784638
205 1 24.7497 21.8851 1.85228 1.87727
638 2 22.6457 20.4756 1.03016 2.69029
639 2 22.5666 20.9951 3.88753 2.48615
709 2 38.3946 27.4923 22.0746 2.38584
265 1 26.9211 18.2615 1.82652 2.42678
710 2 27.4414 20.9652 0.742996 2.44405
711 2 27.1097 20.7143 3.53251 2.256
266 1 29.36 19.429 2.7773 0.64592
277 1 29.8461 22.0457 1.6029 2.77116
337 1 31.5557 18.1901 1.76915 0.470698
782 2 31.9509 20.6459 0.486901 2.70437
783 2 32.1082 20.8069 3.37758 3.10877
338 1 34.0534 19.24 2.27144 1.86856
349 1 34.0043 22.0588 1.63996 0.545549
409 1 36.3485 18.2516 1.50428 0.641361
854 2 36.3191 20.8384 0.820878 2.33878
855 2 36.102 21.0965 3.59517 1.36063
410 1 38.6081 19.6604 2.69144 1.19917
421 1 38.4978 22.4668 1.56643 1.69032
62 1 18.0861 23.3102 2.49507 1.54397
134 1 22.8543 23.3573 2.74479 0.598431
206 1 27.3393 23.2058 2.37675 1.23434
278 1 31.883 23.5291 2.56923 0.618189
350 1 36.249 23.4665 2.64921 1.40856
422 1 41.0831 23.8652 2.62693 0.90401
3 1 6.83047 3.79279 5.55771 0.595033
436 2 4.77517 2.49312 4.70833 3.04199
437 2 18.4525 26.0547 7.58039 1.7786
438 2 6.59231 4.23371 8.0871 1.64666
75 1 11.3871 3.6946 5.4461 1.03154
508 2 8.9235 2.21903 4.53996 2.61419
509 2 9.10043 2.66429 7.19215 2.94881
510 2 11.1266 3.9515 8.19159 2.15017
147 1 15.8418 3.47397 5.51097 1.269
580 2 13.5325 2.08893 4.82386 3.26394
581 2 13.5352 2.77667 7.41729 2.41423
582 2 15.9207 3.55962 8.23294 2.71888
219 1 20.3353 3.80049 5.21193 1.41311
652 2 18.0771 2.40405 4.42166 1.88532
653 2 31.7978 25.6916 7.20467 3.27013
654 2 20.6835 3.67411 8.38285 4.75629
291 1 24.9775 3.90531 5.23844 0.87897
724 2 22.7594 2.48119 4.34276 2.11419
725 2 36.1424 25.8999 6.99099 2.44142
726 2 24.9978 3.46978 8.07445 2.80066
796 2 26.7654 2.70083 4.46164 4.34086
797 2 40.6574 26.3101 6.96435 3.01719
363 1 29.627 3.64224 5.32342 0.749344
798 2 29.2777 3.42247 7.95172 2.98663
448 2 6.55871 6.71592 4.57411 2.29719
449 2 34.0431 6.49602 6.99422 1.61638
4 1 8.97864 5.22717 6.34013 1.38093
15 1 8.86595 7.85815 5.31297 0.531415
450 2 8.63392 8.09155 8.27022 3.7836
520 2 11.1864 6.45408 4.57564 1.96205
521 2 11.1047 6.4574 7.23085 1.54013
76 1 13.5705 5.20033 6.55798 1.54966
87 1 13.5442 7.54982 5.47222 0.723699
522 2 13.2716 7.77103 8.44043 2.82713
592 2 15.6392 6.3311 4.84623 2.4025
593 2 15.8201 6.68014 7.39646 2.90167
148 1 17.9625 4.91588 6.47751 2.10936
159 1 18.0041 7.60306 5.27728 1.31723
594 2 18.3128 8.13718 8.30922 3.06862
664 2 20.4194 6.5357 4.30981 2.49093
665 2 20.309 6.26386 6.92145 1.60252
220 1 22.4634 5.02584 6.17233 1.51823
231 1 22.475 7.79585 5.47853 0.569185
666 2 22.6354 8.09606 8.62047 1.96685
736 2 24.906 6.67312 4.53635 1.90745
737 2 24.6598 6.08359 7.05986 2.63597
292 1 27.3145 5.18655 6.25795 0.835612
303 1 27.1498 7.87544 5.70071 1.46965
738 2 26.6759 7.6907 8.08531 3.10461
364 1 31.4989 4.88801 6.35975 1.35622
375 1 31.7367 7.9456 5.68354 2.21893
808 2 29.6629 6.36608 4.88855 1.68559
809 2 29.1288 6.251 7.62652 3.19511
810 2 31.5154 8.10498 8.36821 3.28811
16 1 11.3677 8.87394 6.27037 1.63493
27 1 11.3077 11.7616 5.26216 2.03657
460 2 9.24627 10.5078 4.6933 2.49064
462 2 10.7972 11.305 7.72268 2.23443
28 1 13.4001 13.0702 6.72022 2.20319
88 1 15.7249 9.07123 6.30762 1.25504
99 1 15.7285 11.4756 5.26587 1.2855
532 2 13.2397 10.2844 4.30122 2.78797
533 2 13.3751 10.3875 6.87341 3.22688
534 2 15.9935 11.7199 7.9196 2.57655
100 1 17.7965 13.0996 6.21016 1.43557
160 1 20.2499 8.90989 5.9911 2.11836
171 1 20.1647 11.9136 5.21666 1.50896
604 2 17.9267 10.2439 3.82522 1.958
605 2 18.192 10.2102 6.85472 1.86746
606 2 20.0238 11.2989 7.98386 1.9161
172 1 22.3811 12.7762 6.30186 1.1447
232 1 24.7503 8.93356 6.66868 1.37017
243 1 24.7703 11.5353 5.62858 1.35552
676 2 22.3251 10.2413 4.2052 2.45516
677 2 22.3596 10.0516 7.40525 1.54589
678 2 24.4799 11.2458 8.50238 3.48108
244 1 27.0172 12.7473 6.38866 1.31997
748 2 26.8942 10.3733 4.4239 2.35399
749 2 26.9654 10.4337 7.85477 4.60347
304 1 29.2359 9.10705 6.74895 1.76444
315 1 29.3017 11.5052 5.53906 0.666127
316 1 31.2917 13.1535 6.50172 1.82869
750 2 29.3056 12.0488 8.24564 3.0781
820 2 31.904 10.3866 4.57898 1.28258
821 2 31.6859 10.4804 7.43164 2.02137
376 1 34.101 8.90699 6.29522 0.612113
387 1 34.1789 11.7931 5.5448 1.63146
388 1 36.1547 13.0475 6.39333 1.11972
461 2 35.808 10.8485 7.59916 2.0785
822 2 33.7077 12.1595 8.65537 5.1172
472 2 11.4208 14.6385 4.85082 1.56832
39 1 13.5248 15.771 5.45312 2.10702
40 1 15.7217 17.0255 6.32221 0.639923
474 2 13.3064 15.5838 8.13753 2.01557
544 2 15.4684 14.0033 4.47723 3.07422
545 2 15.803 14.4695 7.40158 2.40145
111 1 17.7458 15.6185 5.43121 1.77367
112 1 20.2295 16.8074 6.4101 1.2476
546 2 17.9188 15.5876 8.16001 2.11073
616 2 20.0771 14.1577 4.65747 2.77616
617 2 20.546 14.3731 7.4613 1.51449
183 1 22.3573 15.6007 5.24915 0.655247
184 1 24.5297 16.8718 6.15935 1.87218
618 2 22.5744 15.5218 8.61051 1.81166
688 2 24.6173 14.1658 4.84561 2.87881
689 2 24.3553 14.1904 7.34275 1.42477
255 1 26.9492 15.7919 5.42928 1.50937
690 2 26.5682 15.5052 8.09125 1.70371
256 1 29.2808 16.9765 6.28016 0.57227
327 1 31.5813 15.6463 5.29832 1.0708
760 2 29.5327 14.103 4.82851 3.22058
761 2 28.8572 14.5093 7.37285 1.53863
762 2 31.5041 15.8429 8.01403 2.72405
328 1 33.8485 16.7956 6.37675 0.552425
399 1 36.0786 15.7291 5.34399 1.37957
832 2 34.0768 14.4585 4.45517 2.22973
833 2 33.6661 14.2305 7.26944 1.83974
834 2 36.2755 15.4455 8.35273 2.57968
400 1 38.2158 17.2543 6.39647 1.68572
473 2 38.174 14.4988 7.36822 2.69554
51 1 15.7507 19.529 5.36844 1.08709
484 2 13.6142 18.6812 4.33766 2.52101
486 2 15.9144 19.4208 8.25955 2.30637
496 2 15.6727 22.5626 4.8113 3.32834
52 1 18.1581 21.0085 6.52061 1.70385
123 1 20.1897 19.4901 5.52494 0.569754
556 2 18.3445 18.0658 4.73044 3.44084
557 2 18.2224 18.6865 7.2159 4.19228
558 2 20.5171 20.039 8.23267 1.75969
568 2 20.2546 22.1626 4.6447 1.08081
569 2 20.3387 22.5065 7.25436 2.0669
124 1 22.5888 20.6276 6.41868 0.600972
195 1 24.8697 19.4957 5.41384 0.749481
628 2 22.8762 17.9078 4.6457 5.19147
629 2 22.71 18.3143 7.04892 1.8769
630 2 24.6825 19.9614 8.54728 3.27494
640 2 24.7584 22.0542 4.55566 2.8626
641 2 24.9398 22.1066 7.5031 2.33423
196 1 26.9874 20.8069 6.52095 0.6125
700 2 27.079 18.3155 4.58532 3.12656
701 2 26.9291 18.0612 7.51942 2.75277
267 1 29.1157 19.6038 5.27637 2.41122
268 1 31.6735 20.8464 6.13288 1.29003
702 2 29.2864 19.0604 8.19168 4.59282
712 2 29.1502 22.1787 4.10155 3.29104
713 2 29.5157 22.2032 7.02519 2.91181
772 2 31.2542 18.4255 4.55971 3.8741
773 2 31.8496 18.4953 7.31036 2.78265
339 1 33.8244 19.5507 5.36823 1.963
340 1 36.1849 21.0216 6.19863 1.58492
774 2 33.8341 19.3825 8.14406 4.02357
784 2 33.8918 22.468 4.55265 1.52406
785 2 34.1164 21.7568 7.34748 3.0633
844 2 36.1065 18.1611 4.34343 2.20094
845 2 36.0119 18.5443 6.99698 2.40532
411 1 38.5547 19.7071 5.415 1.0786
412 1 40.9807 20.9655 6.14005 0.671359
485 2 13.5356 18.5456 7.38454 2.4451
846 2 38.3122 19.213 8.13395 3.93987
856 2 38.3103 22.1992 4.51364 2.27683
857 2 38.7148 22.5216 7.03489 4.07365
497 2 15.841 22.0446 7.59276 1.37778
63 1 18.1106 23.5285 5.5929 2.45117
64 1 20.6533 25.0331 6.66126 2.19935
498 2 18.0318 23.6745 8.02639 1.59016
135 1 22.7273 23.2869 5.50345 1.22192
136 1 24.8768 24.8346 6.55946 0.621908
570 2 23.0015 23.8753 8.36493 4.43351
207 1 27.1977 23.3123 5.24782 2.38076
642 2 27.2389 23.5177 7.79489 2.80885
208 1 29.4175 24.6202 6.46961 0.722455
279 1 31.5273 23.4809 5.42538 1.54636
714 2 31.7821 23.5373 8.22306 2.02178
280 1 33.8506 24.5489 6.39385 2.11699
351 1 36.3358 23.4645 5.55016 0.642818
786 2 36.2615 23.4057 8.50903 2.80318
352 1 38.5076 24.8743 6.00156 0.649915
423 1 40.5357 23.5344 5.25612 0.625873
858 2 40.9657 23.2626 8.09917 2.40187
424 1 42.6011 24.8483 6.41217 2.38926
439 2 6.46744 3.61547 11.1682 1.33339
511 2 11.2281 4.03104 11.0129 2.61119
583 2 16.0773 3.77827 10.9683 2.80663
655 2 33.6036 27.3184 10.9583 2.69184
727 2 38.1127 27.4708 11.2444 1.81519
799 2 29.1301 3.77278 10.752 2.49081
5 1 8.99362 5.2869 9.21258 1.54621
6 1 11.5348 6.54462 10.3343 2.35538
7 1 11.3059 6.43582 12.9905 0.78491
440 2 9.13592 5.28149 12.0939 2.71223
451 2 9.33267 7.7092 10.9344 3.06995
77 1 13.5797 5.16399 9.32374 1.61908
78 1 15.8053 6.58259 10.2745 2.06994
79 1 15.4208 6.31271 13.0942 2.10481
512 2 13.342 5.17162 12.4099 4.48161
523 2 13.9128 8.10203 11.0859 3.7093
149 1 18.0371 5.32369 9.34407 1.55963
150 1 20.3802 6.59156 9.89642 1.38002
151 1 20.369 6.68446 12.7446 1.72879
584 2 17.7409 5.60854 11.8888 2.03808
595 2 18.5786 7.95049 10.9706 3.95983
221 1 22.7092 5.27859 8.92286 1.59885
222 1 25.0154 6.02931 9.92042 0.807799
223 1 24.7248 6.43531 12.5741 1.3001
656 2 22.2961 5.22196 11.9695 1.81586
667 2 22.4691 7.69789 11.2757 2.55837
293 1 27.0358 4.94887 8.9091 0.5641
728 2 27.3066 4.82668 11.7437 2.65586
739 2 26.9922 7.89735 11.0541 2.28495
294 1 29.3086 6.31908 10.074 1.33931
295 1 29.3103 6.30923 12.9645 1.50688
365 1 31.3985 5.19008 9.19538 1.24866
800 2 31.435 5.00367 11.8845 2.379
811 2 31.6436 7.98707 10.7949 1.30985
366 1 34.0312 6.53388 10.0527 1.5903
367 1 33.7912 6.4262 12.93 1.72512
17 1 11.2003 9.17174 9.19728 0.640183
452 2 11.2122 9.21309 11.9136 2.19969
463 2 11.2143 11.4515 10.8724 1.47093
18 1 13.5147 10.1989 9.86977 2.76458
19 1 13.5367 10.4009 12.6022 0.601032
29 1 13.789 12.9773 9.2105 2.35992
89 1 15.8314 8.9948 9.12759 0.479722
464 2 13.4757 13.0897 11.9604 3.10235
524 2 16.2803 8.55037 11.7261 4.99972
535 2 15.6394 11.1965 10.7368 3.79142
90 1 17.8676 10.6177 9.99311 0.83877
91 1 18.1971 10.2153 12.7154 0.808544
101 1 18.0588 13.1698 9.31782 0.891607
161 1 20.1882 9.27525 9.34585 1.93509
536 2 17.4651 12.5641 11.6679 4.32096
596 2 20.2445 9.57518 12.2022 4.87694
607 2 20.3458 11.8996 11.066 3.24712
162 1 22.508 10.3614 10.1536 0.628171
163 1 22.6422 10.4246 12.758 0.91745
173 1 22.4533 12.9055 9.30547 1.3155
233 1 25.0302 9.01606 9.63103 3.05871
608 2 22.6417 13.2707 12.0357 2.97664
668 2 25.0028 9.00719 12.2981 2.78355
679 2 24.9589 11.6591 11.0717 2.77002
234 1 27.1668 10.3963 10.281 0.872331
235 1 27.0194 10.6864 12.8835 1.81038
245 1 26.8837 12.7792 9.09926 1.66233
680 2 27.1969 13.0701 11.8225 2.13953
305 1 29.0962 8.95875 9.38209 0.648078
306 1 31.6349 10.5309 10.0108 0.639463
307 1 31.714 10.5888 12.7734 1.3275
317 1 31.6227 13.1915 9.2128 0.711569
740 2 29.1871 9.00382 12.1862 1.60919
751 2 29.7054 11.9197 11.0505 3.15447
752 2 31.7127 13.1448 11.9579 3.21951
377 1 33.8109 9.4429 9.13233 0.677873
378 1 36.1567 10.2441 10.1415 0.79488
379 1 35.9934 10.2554 12.8564 0.595553
389 1 36.3604 13.0124 9.16737 1.94114
812 2 33.9946 8.69039 11.698 3.10479
823 2 33.8464 11.443 11.1395 2.86565
824 2 36.3766 12.8811 11.7604 1.58415
30 1 15.8293 14.4516 10.2362 1.59613
31 1 15.6046 14.1587 13.2588 1.99247
41 1 15.6676 17.0459 9.19428 1.37226
476 2 15.515 17.0618 12.3799 3.56124
102 1 20.2426 14.3156 10.215 0.782716
103 1 19.904 14.011 12.7716 2.113
113 1 20.1576 16.794 9.00165 1.44005
547 2 18.0106 15.4361 11.0825 2.53016
548 2 20.1411 16.4769 11.5399 4.91263
174 1 24.704 14.2789 10.2606 1.05779
175 1 24.7988 14.1864 12.7884 0.7893
185 1 24.8029 17.0445 9.25986 1.64741
619 2 22.3344 16.1196 10.9594 3.67391
620 2 25.0606 16.5309 12.4958 5.18845
691 2 26.9073 15.6241 10.7311 2.44112
246 1 29.1677 14.2621 10.1774 1.51156
247 1 29.5211 14.1745 12.7327 0.739461
257 1 29.0682 16.8981 8.93544 1.61175
692 2 29.445 16.8858 11.9079 1.73355
763 2 31.9392 15.6584 11.2093 3.05792
318 1 33.9295 14.1917 10.1842 0.701192
319 1 33.9409 14.3443 12.7456 0.683248
329 1 33.7697 16.6219 9.05185 0.659375
764 2 33.6636 17.3318 11.5914 3.72401
835 2 36.079 15.7188 11.1008 1.89968
390 1 38.4572 14.5468 9.94358 1.74874
391 1 38.4561 14.7031 12.7577 1.9588
401 1 38.5854 16.9681 9.12679 0.966538
475 2 40.8906 15.8389 10.9253 2.53754
836 2 38.3263 16.9736 11.6233 2.91659
42 1 17.9987 18.0533 10.1052 1.70886
43 1 17.9796 18.1059 12.985 0.626214
53 1 18.143 20.7017 9.43113 1.44283
54 1 20.2139 22.1705 10.1127 1.49716
55 1 20.4047 22.281 13.0329 1.7707
488 2 18.2998 20.6908 12.5067 1.98915
559 2 19.9326 19.2754 11.3433 3.20121
114 1 22.6359 18.4945 10.2607 2.06263
115 1 22.247 18.2278 12.9357 0.635243
125 1 22.7198 21.0961 9.13863 1.58474
126 1 24.8642 22.5119 10.3467 1.63947
127 1 24.8149 22.2326 12.8799 0.619159
560 2 21.9647 20.6027 11.9068 3.64549
631 2 24.8709 19.6318 11.1424 2.36063
186 1 26.9925 18.4009 9.90846 0.628817
187 1 27.007 18.2201 13.0622 1.78392
197 1 27.1607 20.8107 9.13542 0.601376
632 2 27.1353 20.9227 12.0628 3.09144
198 1 29.1699 22.3567 9.95145 1.85665
199 1 29.3596 22.5257 12.876 1.64726
258 1 31.6587 18.0236 9.71778 1.93918
259 1 31.714 18.2725 12.9355 1.55944
269 1 31.7008 20.8768 8.92639 1.66942
703 2 29.3256 19.2003 10.8906 1.88652
704 2 31.8007 20.9782 11.5867 1.62022
270 1 33.9267 22.1811 9.95029 0.780353
271 1 33.9423 22.3014 12.8186 0.491937
330 1 36.1992 18.3203 9.97127 0.568117
331 1 36.0099 18.2222 12.5874 0.648932
341 1 36.2023 20.7354 9.13189 1.11727
775 2 33.9025 19.6462 10.8761 2.64959
776 2 36.5582 20.9671 12.0978 2.6418
342 1 38.6045 22.2592 10.0608 1.0939
343 1 38.3965 22.2661 12.8762 0.699528
402 1 40.7304 18.4033 10.2749 0.529355
403 1 40.5749 18.446 12.7937 0.613896
413 1 40.6454 20.7729 8.89744 1.53462
847 2 38.6232 19.6979 11.054 1.85745
848 2 40.5322 21.2263 11.7725 2.51281
414 1 42.795 22.1468 10.1822 1.56575
415 1 42.8861 22.0103 12.9156 1.33888
487 2 43.0019 19.6513 11.4476 3.0705
65 1 20.2786 24.6471 9.36031 1.42307
500 2 20.27 24.9228 11.7171 2.6246
66 1 22.6868 26.0204 10.1776 1.58061
67 1 22.8543 26.1417 12.822 1.62067
137 1 25.1368 24.9417 9.16862 0.686203
571 2 22.3837 23.1057 11.5503 4.53906
572 2 24.7888 25.0302 11.8416 3.1186
138 1 27.1158 26.3511 10.4368 2.18876
139 1 27.108 25.8871 12.9941 0.896067
643 2 27.1924 23.5761 10.6582 2.73789
209 1 29.1737 24.6485 9.03819 0.705709
210 1 31.6749 26.1091 9.76009 2.12872
211 1 31.6566 26.3002 12.7747 1.05187
644 2 29.4665 25.055 11.6971 2.0813
715 2 31.8807 23.3948 10.9716 1.45905
281 1 33.8948 24.9612 9.13473 0.874073
282 1 36.2102 26.0218 9.59534 1.84597
283 1 36.0688 26.2293 12.7495 1.54571
716 2 33.77 24.6436 11.5979 2.68855
787 2 36.1267 23.5207 11.2078 1.31703
353 1 38.5898 24.7619 8.95052 1.41536
354 1 40.7207 26.0517 9.72054 0.726291
355 1 40.8361 26.0256 12.5916 0.973319
788 2 38.7859 24.906 12.0699 3.27273
859 2 40.7865 23.6901 10.9021 2.61349
425 1 42.9177 24.6706 9.2576 0.465662
426 1 45.1608 26.1252 10.0731 1.42953
427 1 45.3236 26.0791 12.8003 0.76948
499 2 45.0018 23.3022 10.9469 2.47686
860 2 43.0702 24.7638 12.0488 2.2787
441 2 36.7277 5.29868 14.3729 2.54297
442 2 11.0907 6.52482 16.2445 2.0572
8 1 13.4213 7.88965 13.6373 0.648195
9 1 13.2956 7.79998 16.2507 0.811074
513 2 27.1301 28.943 14.9309 2.25127
514 2 16.0714 6.50287 15.5994 1.55497
80 1 18.07 7.80496 13.8592 1.56463
81 1 17.8827 8.01054 16.7515 0.741903
585 2 31.6477 28.6093 14.4936 1.25503
586 2 20.2275 6.39475 15.3934 2.17866
152 1 22.7521 8.0823 13.7692 0.683956
153 1 22.6094 7.74119 16.357 0.450516
657 2 36.1962 28.5168 14.8132 2.94574
658 2 24.6362 6.72045 15.4243 3.34149
224 1 27.182 7.52394 13.7375 0.906806
225 1 26.9813 7.86254 16.3633 0.606958
729 2 26.9612 5.41216 14.5593 3.51092
296 1 31.8482 7.99054 13.8152 1.83256
297 1 31.5954 7.85394 16.8012 1.51569
730 2 29.3225 6.13346 15.4702 2.62084
801 2 31.8333 5.21289 14.5036 3.09915
368 1 36.223 7.6962 13.5942 0.59287
369 1 36.0289 7.94275 16.3518 2.16688
802 2 34.1244 6.40585 15.6673 1.64818
453 2 11.226 8.89684 14.7556 2.10523
10 1 15.5948 8.97749 17.4207 0.756497
20 1 15.6791 11.5293 13.8419 0.643328
21 1 15.64 11.7472 16.4323 0.811165
454 2 13.8304 10.2028 15.4681 3.20432
525 2 15.7208 9.18895 14.6182 2.60934
22 1 17.9944 12.8903 17.5583 0.563112
82 1 20.1101 9.03783 17.4763 1.44975
92 1 20.2717 11.6571 13.7779 1.74902
93 1 20.2382 11.7249 16.5423 1.60666
526 2 17.7792 10.4051 15.6784 1.81777
537 2 17.8604 12.8106 14.5922 2.18042
597 2 20.4399 9.1847 14.8407 2.39918
94 1 22.4379 12.7064 17.5058 0.74382
154 1 24.7212 8.81776 17.6074 1.88761
164 1 24.7316 11.7596 13.8375 0.645225
165 1 24.8176 11.5499 16.6498 0.726699
598 2 22.7975 10.5093 15.761 2.81368
609 2 22.5953 13.1387 14.9651 2.41729
669 2 25.042 9.36448 14.8892 3.34894
166 1 26.8978 13.1178 17.6535 0.608897
670 2 27.1461 10.4732 15.8944 2.82721
681 2 27.0626 12.8668 14.7139 1.8555
226 1 29.0964 9.09244 17.4074 1.70037
236 1 29.4272 11.8521 13.6447 0.541578
237 1 29.1909 11.8364 16.4465 2.19007
238 1 31.813 13.0694 17.4544 0.853969
741 2 29.1552 8.88831 14.3387 1.90392
742 2 31.6513 10.566 16.3264 2.03908
753 2 31.7452 13.1827 14.838 2.41884
298 1 33.7078 9.05096 17.4921 0.787122
308 1 34.1036 11.9194 13.8418 1.83161
309 1 33.996 11.8468 16.6052 0.519577
310 1 36.0423 13.2192 17.4537 1.70847
813 2 33.709 9.44628 14.5344 2.9652
814 2 36.4205 10.4249 15.4683 2.68857
825 2 36.5577 13.1569 14.9405 1.54024
370 1 38.6504 9.10602 17.5104 1.31385
380 1 38.6132 11.6305 13.7424 2.10472
381 1 38.5704 11.7351 16.6111 1.41108
382 1 40.7169 12.9741 17.5432 0.602924
465 2 13.5848 12.8045 14.8579 3.06592
466 2 15.6276 14.2715 15.5777 2.77032
32 1 17.7901 15.5538 13.8774 1.15978
33 1 18.0255 15.5328 16.7014 1.3167
34 1 20.2867 16.8937 17.4548 1.17671
538 2 19.9031 14.7082 15.6162 2.36432
549 2 20.1656 16.7649 14.552 1.43205
104 1 22.5694 15.5547 13.5304 1.55271
105 1 22.7016 15.3642 16.4367 1.7803
106 1 25.0744 16.9114 17.5013 0.695679
610 2 24.9988 13.9587 15.7658 2.94892
621 2 24.8916 16.7677 14.6943 2.32527
176 1 27.1863 15.5253 13.6947 0.697942
177 1 27.2595 15.6451 16.3297 0.844915
178 1 29.3247 16.724 17.2826 0.690991
248 1 31.7566 15.4707 13.8774 1.54589
249 1 31.5042 15.5526 16.5515 0.578513
682 2 29.224 14.1932 15.2805 2.62433
693 2 29.3201 16.9676 14.3262 2.65659
250 1 33.8121 16.9904 17.5256 1.83113
320 1 36.0694 15.6826 13.7647 1.43627
321 1 36.2038 15.7419 16.4543 1.30489
754 2 33.9252 14.2667 15.3447 2.65918
765 2 33.6335 17.4309 14.5576 4.09568
322 1 38.2474 17.2824 17.6735 1.72927
392 1 40.7676 15.7389 13.9915 1.40773
393 1 40.6279 15.8284 16.742 1.83576
826 2 38.9322 14.3595 15.2936 2.04296
837 2 38.281 17.0471 14.5052 2.0901
394 1 42.9418 16.7894 17.7755 1.33885
477 2 42.9344 16.9871 14.955 1.91644
44 1 20.1857 19.5951 13.8771 1.64668
45 1 20.2667 19.466 16.8031 1.36454
478 2 17.9702 18.3 16.2677 1.79448
490 2 20.3638 21.8141 15.752 2.09043
46 1 22.4047 20.8247 17.7407 1.2262
116 1 24.8425 19.3661 13.802 1.71185
117 1 24.7742 19.3248 16.7815 1.02265
550 2 22.5459 18.0219 15.7556 1.2782
561 2 22.7037 20.58 14.7259 2.25972
562 2 24.596 22.0157 15.9642 2.65336
118 1 27.0483 20.7612 17.6159 0.507565
622 2 27.1227 18.4046 15.6472 2.24155
633 2 26.7258 21.1575 14.6251 3.04923
188 1 29.4826 19.6497 13.7561 1.66964
189 1 29.3515 19.4598 16.6614 1.57877
190 1 31.587 20.8515 17.2736 1.34574
634 2 29.4008 21.9799 15.9626 2.47299
694 2 31.6098 18.2898 16.0947 3.25875
705 2 31.6889 20.9594 14.5149 1.84013
260 1 33.9276 19.8327 13.6881 0.538849
261 1 33.868 19.4443 16.4223 1.33098
262 1 36.1757 20.8872 17.5278 1.19274
706 2 33.7828 22.4276 15.525 2.9868
766 2 36.1819 18.2525 15.304 2.21517
777 2 36.1608 20.671 14.8659 2.39106
332 1 38.3858 19.4196 13.7113 0.734365
333 1 38.6557 19.8441 16.5617 2.22757
334 1 40.9576 20.8278 17.5577 0.90262
778 2 38.2255 21.8528 15.5039 3.07945
838 2 40.5049 18.1918 15.6132 1.90383
849 2 40.7517 20.9136 14.4759 2.47498
404 1 43.0162 19.5308 13.9978 1.76868
405 1 42.7198 19.3418 16.6639 0.537348
406 1 45.2501 20.716 17.6783 1.63367
489 2 45.031 20.6451 14.9958 1.55626
850 2 43.014 22.2245 15.9927 2.78551
56 1 22.7288 23.2138 13.9812 0.610237
57 1 22.5831 23.4787 16.5322 1.31786
58 1 24.9137 24.5906 17.5998 0.637697
502 2 22.6575 26.0733 15.5246 1.61297
573 2 25.0508 24.6727 14.6643 2.8756
128 1 27.1769 23.4371 13.7134 0.927218
129 1 27.1438 23.4246 16.4805 1.53965
574 2 27.1966 26.1816 15.7943 2.26903
130 1 29.3186 24.7839 17.4796 1.25832
200 1 31.6881 23.7814 13.8835 1.60479
201 1 31.7508 23.4404 16.4738 0.796887
645 2 29.2033 24.5757 14.5947 3.00079
646 2 31.4706 25.9245 15.5632 2.2481
202 1 33.8551 24.8664 17.1701 0.72163
272 1 36.195 23.5041 13.8591 1.12014
273 1 36.0101 23.6617 16.5819 1.5401
717 2 34.1177 24.9997 14.7114 2.9095
718 2 36.7745 26.0636 15.205 2.27325
274 1 38.5111 24.4493 17.6854 2.02342
344 1 40.6213 23.533 13.8185 0.526035
345 1 40.7193 23.2543 16.5498 1.56777
789 2 38.8347 24.8578 15.0016 1.64993
790 2 40.6795 26.4764 15.1873 2.06627
346 1 43.2 24.794 17.6536 1.48445
416 1 45.186 23.5681 13.7401 1.65635
417 1 45.3106 23.5294 16.613 1.08588
861 2 42.8 24.9328 14.916 2.78355
862 2 45.2984 26.3366 15.8123 2.646
418 1 47.3805 24.8355 17.6164 1.29909
501 2 47.303 24.5377 14.9211 2.86243
68 1 25.0059 27.3947 13.8138 0.576247
69 1 25.1981 27.434 16.5828 1.53732
70 1 27.3316 28.8495 17.6641 1.65385
140 1 29.1397 27.2778 13.6104 1.78773
141 1 29.3896 27.2308 16.7826 1.36749
142 1 31.7331 28.7361 17.5507 1.73458
212 1 33.8294 27.4611 13.5559 1.46901
213 1 34.1271 27.5479 16.3605 1.37697
214 1 36.1577 28.8618 17.3577 0.625037
284 1 38.4657 27.5122 13.6989 1.51882
285 1 38.5303 27.6079 16.5237 1.77607
286 1 40.9347 28.945 17.5307 1.73988
356 1 42.9729 27.2194 13.6399 0.75326
357 1 42.7774 27.4706 16.3884 1.79339
358 1 45.1336 28.603 17.2473 1.91434
428 1 47.5696 27.0903 13.7624 1.35041
429 1 47.5908 27.4868 16.4516 1.33853
430 1 49.8897 28.8098 17.4615 1.64124
443 2 24.8975 29.8712 18.5199 2.4901
444 2 13.6514 7.6302 18.992 2.70421
515 2 15.9649 6.4736 18.3531 2.9522
516 2 18.353 7.59555 19.267 2.58277
587 2 20.3297 6.51687 18.0208 3.03372
588 2 22.756 7.70503 19.4372 2.60637
659 2 38.6995 29.8093 18.0365 3.67515
660 2 27.1617 7.52543 19.0822 3.1774
721 2 31.8108 23.4861 -0.137275 2.07358
731 2 29.9872 6.92451 18.5696 2.35387
732 2 31.8273 7.66665 19.7438 2.14406
793 2 36.1924 23.3174 0.10283 2.48609
803 2 47.7922 29.7137 18.4831 2.99366
804 2 36.1935 7.79623 19.3897 1.82177
11 1 15.8102 8.83988 20.1088 1.84722
455 2 13.8898 10.3214 18.479 2.96327
456 2 15.6873 11.8428 19.1568 1.49717
12 1 18.0781 10.2736 21.3761 1.4194
23 1 17.9146 12.7727 20.2935 1.32715
83 1 20.4221 8.71072 20.2741 1.67239
527 2 17.6969 10.3314 18.6349 3.13276
528 2 20.3269 11.5298 19.3375 2.22948
84 1 22.5718 10.2035 21.2317 1.073
95 1 22.3921 12.8286 20.3546 0.681391
155 1 24.9556 8.95397 20.809 2.57282
599 2 22.6835 10.3962 18.3944 1.79073
600 2 24.8664 11.498 19.8451 3.49927
156 1 27.2687 10.3042 21.4332 1.76801
167 1 27.0155 12.9086 20.3226 0.693989
671 2 26.902 10.305 18.4536 1.32859
227 1 29.3235 9.14618 20.5607 1.54493
228 1 31.9379 10.5504 20.9842 1.86493
239 1 31.5141 13.1822 20.118 0.705166
672 2 29.1151 11.8949 18.9067 3.98276
743 2 31.6188 9.88441 18.6886 3.55635
299 1 34.213 9.01858 20.1161 1.60303
300 1 36.481 10.3664 20.9215 1.19207
311 1 36.3421 13.0476 20.0828 0.478555
733 2 34.1902 11.871 21.7112 1.70812
744 2 33.9037 11.8352 19.5253 2.39783
815 2 36.0057 10.1297 18.2477 3.7126
371 1 38.5833 8.96379 20.1229 2.14949
372 1 40.6396 10.5487 20.9377 2.28273
383 1 40.6411 13.1653 20.3729 0.655454
805 2 38.4961 11.9996 22.1203 2.46187
816 2 38.6851 11.9672 19.3459 2.76212
24 1 20.0817 14.3721 21.2154 1.48663
35 1 20.1542 16.8755 20.3823 1.20717
468 2 18.0517 15.4358 19.8083 1.68422
539 2 20.4362 14.3986 18.5017 2.19158
96 1 24.7913 13.8494 21.1842 0.501885
107 1 24.97 16.5565 20.182 1.26395
540 2 22.3838 15.4451 19.3392 1.36525
611 2 24.5365 14.127 18.4223 1.98043
612 2 27.1677 15.5353 19.3393 2.30525
168 1 29.2286 14.1464 21.2001 1.4899
179 1 29.51 16.8046 20.0827 1.66551
683 2 29.4934 14.2381 18.3749 2.2164
684 2 31.9773 15.5614 19.2587 2.63891
240 1 34.0016 14.398 20.9696 1.33653
251 1 34.4028 16.8073 20.0193 0.874751
745 2 36.1526 15.6671 22.0721 2.24624
755 2 33.7158 14.4043 18.2022 2.91698
756 2 36.7721 15.6636 19.3285 3.62012
312 1 38.51 14.4396 21.014 0.70597
323 1 38.592 17.1025 20.4305 0.701236
817 2 40.8294 15.8064 22.2464 2.31684
827 2 38.6207 14.434 18.3966 2.70883
828 2 40.4837 15.4625 19.2554 2.09521
384 1 42.8096 14.4685 21.6357 1.99324
395 1 42.8952 17.0261 20.5708 1.17112
467 2 16.3964 14.3457 18.4818 2.65719
480 2 19.882 19.5949 19.6605 3.60227
36 1 22.7964 18.264 21.4461 1.91572
47 1 22.547 20.6187 20.3521 1.91834
48 1 24.9238 21.9396 21.4178 2.12524
551 2 22.5963 17.7774 18.387 1.21489
552 2 24.6402 19.433 19.3805 2.24685
563 2 25.0216 22.0227 18.5719 2.27914
108 1 27.1405 17.6957 21.2332 1.98958
119 1 26.958 20.4623 20.256 1.32848
623 2 27.1723 18.0642 18.5652 2.35955
120 1 29.1462 22.1573 21.6013 2.10217
180 1 31.8355 17.9419 21.0314 1.42028
191 1 31.9152 20.8731 20.2212 2.22604
624 2 29.6323 19.3346 19.4577 1.8932
635 2 29.3136 22.014 18.6952 1.60401
695 2 31.0793 18.0191 18.7091 4.72627
192 1 33.8308 22.3167 21.3785 1.49352
252 1 36.2674 18.3447 21.2012 0.493543
263 1 36.0376 20.8333 20.1042 1.50421
696 2 33.6684 19.3997 19.2859 2.19937
707 2 33.8083 21.9943 18.0888 1.35616
767 2 35.7853 18.4807 18.1731 3.49293
264 1 38.5791 22.1791 21.2098 0.6772
324 1 40.6581 18.305 21.3797 0.663252
335 1 40.614 20.9754 20.3111 1.49829
757 2 24.8598 11.8066 -0.232382 1.87818
768 2 38.455 19.7589 19.2545 2.47321
779 2 38.7533 22.3655 18.83 3.57509
839 2 40.8065 18.0123 18.5737 2.25645
336 1 43.1552 22.0615 21.1427 0.480738
396 1 45.4946 18.3289 21.5446 0.540474
407 1 45.2727 20.8707 20.406 0.759614
479 2 18.1231 18.0375 18.9513 2.44248
829 2 29.7056 11.7381 -0.143779 3.51219
840 2 43.084 19.8286 19.4557 2.32558
851 2 43.2456 22.2373 18.5538 3.33029
408 1 47.6639 22.2636 21.202 0.729729
491 2 47.5485 22.3938 18.2955 2.80141
59 1 24.9802 24.6348 20.1457 0.56807
492 2 22.573 23.6609 19.1582 2.59373
503 2 22.8587 26.1081 17.8965 2.09883
60 1 27.3022 26.1097 21.2591 1.52739
564 2 26.8821 23.1818 19.068 3.53855
575 2 26.9821 25.98 18.4062 1.76543
131 1 29.3919 24.7138 20.4784 1.34663
132 1 31.5584 26.4408 21.2181 1.80295
636 2 31.5314 24.1873 19.1148 2.44024
647 2 32.0284 26.3688 18.2963 1.67772
203 1 33.9743 25.192 20.302 1.93261
204 1 36.3319 26.1282 21.4585 2.09557
708 2 35.9748 23.6098 19.2953 1.39073
719 2 36.2132 25.73 18.4531 1.62434
275 1 38.5012 24.682 20.2804 0.65124
276 1 40.8732 26.2656 21.1303 1.37187
769 2 26.9321 15.5995 0.104611 2.38336
780 2 41.1256 23.6589 19.963 2.38472
791 2 40.6293 26.1079 17.9532 1.7745
347 1 43.1098 24.83 20.3301 1.33635
348 1 45.674 25.9392 21.4162 0.844017
841 2 31.1919 15.7785 -0.0117727 3.38508
852 2 45.3936 23.3226 19.4407 3.01449
863 2 45.2863 26.1311 18.8233 3.03556
419 1 47.3868 24.6262 20.3892 0.89816
420 1 50.0483 25.8756 21.2099 1.68293
504 2 24.8718 27.0678 19.3763 1.5074
71 1 26.8553 28.735 20.5532 2.01649
72 1 29.2185 30.0693 21.0817 1.82342
143 1 31.7749 29.0116 20.4102 0.691342
576 2 29.5367 27.3162 19.558 2.79541
144 1 34.1583 29.845 21.141 0.833349
215 1 36.3168 28.9491 20.084 0.867999
648 2 34.3354 27.8814 19.4176 3.93349
216 1 38.4188 29.9603 21.0347 1.70581
287 1 40.8487 28.8066 20.4356 0.674302
720 2 38.0592 27.3351 19.2372 1.65532
288 1 42.9976 30.0439 21.2032 0.677684
359 1 45.4237 28.7046 20.0107 1.91539
781 2 43.4265 27.467 21.6804 1.60798
792 2 43.1817 27.5282 19.1321 2.05837
360 1 47.6835 29.8522 21.1878 0.722059
431 1 50.0315 28.7147 20.2955 1.28375
853 2 47.9402 27.5529 21.9004 3.56583
864 2 47.5542 27.1347 19.5537 1.51744
432 1 52.176 30.1967 21.3678 0.736143
ITEM: TIMESTEP
175
ITEM: NUMBER OF ATOMS
864
ITEM: BOX BOUNDS xy xz yz pp pp pp
-2.0675314008791013e-01 5.4568094287351734e+01 1.3706485101160162e+01
-1.9834053394713197e-01 3.1451648456197592e+01 1.3699933686445705e+01
-1.8164804100297460e-01 2.2190249986836008e+01 7.9096604017494485e+00
ITEM: ATOMS id type x y z f_grace_gamma
433 2 13.6137 23.3271 -0.14405 2.5958
434 2 2.47823 1.39955 0.760684 1.88245
435 2 2.34722 1.18229 3.58967 2.85803
445 2 42.7442 11.7367 21.9023 1.78721
1 1 4.56517 2.62132 1.93427 2.0942
2 1 6.87813 3.49103 2.75557 1.21514
505 2 4.8354 -0.156383 -0.149373 1.76927
506 2 6.78958 0.927316 0.567802 2.70295
507 2 20.5298 24.6994 3.71465 1.73848
517 2 20.5259 11.663 22.1152 2.27056
73 1 8.87568 2.1713 1.57489 0.708049
74 1 11.3493 3.75974 2.57547 0.686236
577 2 36.4682 31.3162 21.946 3.45907
578 2 11.4093 0.890913 0.929938 2.59743
579 2 24.9156 25.0146 4.13242 1.90532
589 2 11.2503 3.3464 -0.0905019 2.37986
145 1 13.4759 2.24666 2.00541 1.83661
146 1 15.6987 3.76789 2.71439 0.63528
649 2 40.9061 31.1191 21.8965 3.17379
650 2 15.5335 0.780912 0.958321 1.49596
651 2 29.1694 24.7311 3.76384 1.69382
661 2 15.8736 3.48844 -0.0500577 2.88025
217 1 18.1526 2.40066 1.42875 1.45474
218 1 20.3037 3.82313 2.35007 1.48115
722 2 20.3978 1.10407 0.794303 1.23651
723 2 20.5615 1.18994 3.43492 4.20412
289 1 22.7816 2.50354 1.34822 1.33767
290 1 25.0164 3.83277 2.53306 1.47998
794 2 25.0563 1.39421 0.20704 3.56259
795 2 25.3707 1.06267 3.34289 3.7337
361 1 27.1918 2.28179 1.52658 1.24977
362 1 29.5695 3.60203 2.72171 0.879428
13 1 6.85218 6.27302 1.76799 1.23967
446 2 4.53599 4.76074 0.540406 1.98445
447 2 4.3861 5.12927 3.44352 2.87691
457 2 31.6462 7.68396 0.081652 1.62485
14 1 8.99314 7.39421 2.63735 0.68332
85 1 11.3395 5.98137 1.70133 0.515756
518 2 9.16337 4.68688 0.900125 2.57239
519 2 9.14576 4.97676 3.84255 2.33613
529 2 8.76401 7.66309 -0.10088 1.49336
86 1 13.769 7.70851 2.39311 2.57612
157 1 15.8589 6.16171 1.69989 0.76643
590 2 13.7461 4.79533 1.08398 3.29214
591 2 13.6702 5.24948 3.62354 2.26897
601 2 26.6439 15.0428 21.9188 6.47355
158 1 17.7522 8.01222 2.50243 2.94883
229 1 19.8994 6.50639 1.47124 2.45177
662 2 17.9392 5.23757 0.387311 2.96496
663 2 18.0911 5.121 3.46686 1.47818
673 2 32.1422 15.6013 22.132 2.54745
230 1 22.4323 7.57102 2.93561 2.33574
301 1 24.9335 6.43062 1.75915 1.466
734 2 22.6748 5.48544 0.862328 1.25777
735 2 22.6785 5.05903 3.56323 1.62162
302 1 26.8861 8.02246 2.62263 1.99356
806 2 27.4496 5.0081 0.818343 1.46033
807 2 27.6657 5.33963 3.75965 1.68113
373 1 29.7774 6.24511 2.04641 2.22326
374 1 31.799 7.99119 2.75182 1.69455
458 2 6.68133 8.70813 0.565083 1.51172
25 1 9.13649 10.2582 1.71634 0.477653
26 1 11.2971 11.6231 2.47442 0.576782
470 2 9.2724 12.5173 0.743931 3.73726
471 2 9.28235 12.9186 3.56529 2.42896
530 2 11.1823 8.57514 0.644596 2.80633
531 2 11.1806 8.94232 3.30049 2.90669
541 2 11.4429 11.3869 -0.152912 3.78015
97 1 13.2542 10.0142 1.66866 0.76059
98 1 15.5321 11.1325 2.74711 3.55441
542 2 13.3515 12.9743 0.646199 3.26601
543 2 13.5573 13.1668 3.65184 1.53824
602 2 15.9481 8.95752 0.772911 4.08242
603 2 15.5621 9.03049 3.72979 4.20498
613 2 16.2784 11.8036 -0.0616856 2.28004
169 1 18.1822 10.4012 1.29649 1.96224
170 1 20.3483 11.4788 2.59978 0.73195
614 2 17.8509 13.217 0.853626 2.59633
615 2 18.036 13.3208 3.39596 2.9462
674 2 20.8476 9.32071 0.509524 2.02881
675 2 20.3063 8.78775 3.2167 2.91435
685 2 33.9562 19.6986 22.0134 2.3787
241 1 22.7666 10.3578 1.47564 1.95463
242 1 24.799 11.803 2.66011 1.88109
686 2 22.6685 13.0933 0.495187 3.691
687 2 22.4534 12.8839 3.49054 2.23677
746 2 24.6465 8.77859 0.691476 3.11656
747 2 24.6641 9.2915 3.58116 1.942
313 1 27.1517 10.7422 1.65732 0.784541
758 2 26.9189 13.3334 0.763594 3.28557
759 2 27.3318 12.6568 3.67589 4.22249
314 1 29.4415 11.7218 2.88344 2.25182
385 1 31.6812 10.4076 1.80452 0.849248
818 2 29.6929 9.0411 0.925131 1.13773
819 2 29.4388 9.02924 3.56192 1.45536
830 2 32.0938 13.0973 1.02108 2.50876
831 2 31.881 12.8191 3.82893 1.45127
386 1 34.2157 11.6396 2.63131 1.22496
459 2 6.90408 8.97736 3.1332 1.74332
469 2 34.0143 11.8555 -0.00486654 2.15249
37 1 11.0554 14.3685 1.75039 0.759115
482 2 11.3749 17.3546 1.11821 3.27643
38 1 13.278 15.4445 2.23709 2.33365
109 1 15.606 13.9981 1.87509 2.10592
553 2 26.898 23.5241 22.1424 3.69
554 2 15.8608 17.0061 0.770734 2.45305
555 2 15.6039 16.9711 3.48604 1.49782
110 1 17.8876 15.9373 2.72688 0.920362
181 1 20.136 13.9945 1.73877 2.05887
625 2 18.1012 15.8165 -0.151504 1.20592
626 2 20.2865 16.6742 0.501601 1.5726
627 2 20.2165 16.8504 3.23956 2.43508
182 1 22.4673 15.4803 2.579 1.90824
253 1 24.8794 14.5085 1.55526 1.88838
697 2 36.4487 23.6273 21.8791 3.03929
698 2 24.8363 17.1843 0.331033 3.42257
699 2 24.9506 16.2643 3.53615 2.14584
254 1 27.4505 15.2906 2.77269 2.13443
325 1 29.791 14.4072 1.48841 2.3218
326 1 32.0237 15.3285 2.38623 2.52802
770 2 28.7774 17.0361 0.931383 2.11705
771 2 29.9727 16.6007 3.52613 1.81603
397 1 34.3916 14.34 1.80691 1.16195
398 1 36.6199 15.8826 2.58858 1.48554
481 2 22.904 23.1903 22.1387 4.25861
842 2 34.2206 16.8933 0.760911 2.9402
843 2 34.1332 16.8932 3.61753 2.91425
483 2 38.5311 17.4107 3.65012 2.88592
493 2 11.1912 19.4404 -0.143064 2.73083
49 1 13.5908 18.0378 1.58561 0.600825
50 1 15.8385 19.5078 2.65725 1.48296
61 1 15.7763 22.1351 1.71129 0.684704
494 2 13.4932 21.1338 0.991316 2.62024
495 2 41.0125 21.4123 3.65408 3.01938
565 2 28.7698 27.5457 22.1777 3.97219
121 1 18.1483 18.4051 1.71276 1.75303
122 1 20.3781 19.7119 2.81502 1.45951
133 1 20.3926 22.0729 1.42744 1.66335
566 2 17.7602 20.625 1.04888 4.3339
567 2 17.8037 20.6051 3.65998 2.81043
637 2 20.31 19.5907 0.177708 3.55429
193 1 22.3427 18.0556 1.69417 1.84897
194 1 24.7252 19.2157 2.70639 1.57611
205 1 24.8653 22.0064 1.74019 1.14146
638 2 22.68 20.777 0.779384 2.64637
639 2 22.8129 21.0249 3.48049 3.16473
709 2 24.9049 19.8774 -0.0894604 1.89274
265 1 26.9091 18.2089 1.84448 2.9665
710 2 27.57 20.7341 1.18895 4.15387
711 2 26.7978 20.781 3.61863 3.07062
266 1 29.2342 19.3333 2.67001 0.739247
277 1 29.8855 21.9569 1.72867 2.24051
337 1 31.616 18.1836 1.60924 1.77207
782 2 32.1155 20.7739 0.335526 1.65984
783 2 32.0839 20.9672 3.199 1.96645
338 1 34.0782 19.4183 2.3237 1.57161
349 1 34.0965 22.1441 1.63331 1.20442
409 1 36.3469 18.3859 1.43024 0.8419
854 2 36.4362 21.1225 0.720772 1.60904
855 2 36.0796 21.0781 3.4063 1.63598
410 1 38.9507 19.6741 2.74519 2.12756
421 1 38.721 22.5135 1.7414 1.38872
62 1 17.9679 23.2368 2.53507 1.68427
134 1 22.9059 23.5357 2.71632 1.51417
206 1 27.3179 23.1786 2.43655 1.69823
278 1 32.0004 23.7306 2.76519 2.46159
350 1 36.2845 23.6014 2.62104 1.10948
422 1 41.2249 23.695 2.7018 0.793205
3 1 6.86964 3.98931 5.61269 1.32902
436 2 4.73857 2.52895 4.56022 1.60057
437 2 4.95151 2.66012 7.49696 1.64734
438 2 6.70137 4.26918 8.65037 1.98087
75 1 11.4035 3.60022 5.4243 0.714115
508 2 9.0285 2.12136 4.51642 1.44482
509 2 8.99767 2.74545 7.43519 1.59101
510 2 11.072 3.75028 8.35989 2.46573
147 1 15.8909 3.51781 5.26593 1.47957
580 2 13.5135 2.54402 4.81752 2.92368
581 2 13.3175 2.69563 7.67981 1.63149
582 2 15.8543 3.45326 8.18196 3.3552
219 1 20.388 3.60104 5.12299 1.65286
652 2 18.1774 2.20396 4.06947 2.88623
653 2 18.354 2.42039 6.81828 1.99529
654 2 20.6342 4.16527 8.07971 1.53183
291 1 25.0552 4.03922 5.29858 0.636281
724 2 22.7269 2.23637 4.30148 1.33229
725 2 22.4627 2.37436 6.85248 2.52347
726 2 24.7121 3.56291 8.30597 2.93755
796 2 27.3783 2.7116 4.42661 2.53336
797 2 27.1172 2.998 7.02385 4.58683
363 1 29.5803 3.40915 5.26545 0.785518
798 2 29.5174 3.06122 8.08309 2.41448
448 2 6.51058 6.90969 4.42908 1.83843
449 2 6.7599 6.30405 6.98735 1.36771
4 1 9.25355 5.17028 6.31748 1.90871
15 1 9.10156 7.7818 5.20362 0.688233
450 2 8.68723 7.89989 8.13598 1.5006
520 2 11.2501 6.44053 4.35493 2.65376
521 2 11.4671 6.24374 7.13951 2.39039
76 1 13.7925 5.01172 6.51326 1.57957
87 1 13.6606 7.59054 5.44155 1.14037
522 2 13.3045 7.57809 8.22905 2.84706
592 2 15.8686 6.14485 4.86838 3.3397
593 2 15.9295 6.39515 7.51934 2.75202
148 1 18.0136 4.91133 6.49591 1.81286
159 1 17.8787 7.58409 5.50169 1.66964
594 2 18.231 8.11539 7.97223 1.88751
664 2 20.1846 6.24757 4.382 1.22677
665 2 20.4169 6.39475 7.02378 1.53554
220 1 22.7769 4.93192 6.22019 1.72309
231 1 22.3333 7.70491 5.51768 0.676848
666 2 22.5306 7.74724 8.35141 2.71941
736 2 24.9703 6.6705 4.36292 2.59879
737 2 24.881 6.17482 7.24172 2.86465
292 1 27.2867 5.3143 6.31302 2.42124
303 1 27.1954 7.8384 5.48018 0.729901
738 2 26.8545 7.49164 8.40413 2.65473
364 1 31.6495 5.04278 6.38092 0.641842
375 1 31.7749 7.79544 5.64771 1.6298
808 2 29.5672 6.44893 4.67877 1.43245
809 2 29.5464 6.39228 7.29796 2.90034
810 2 31.5966 7.79967 8.23425 1.74892
16 1 11.1435 8.84862 6.0555 1.75142
27 1 11.2825 11.6865 5.38503 1.6673
460 2 8.76169 10.3753 4.52979 2.98008
462 2 10.9787 11.2683 7.90211 1.96638
28 1 13.4555 13.1766 6.39554 1.6612
88 1 15.6206 8.96329 6.20657 0.935391
99 1 15.9321 11.548 5.248 0.789207
532 2 13.3791 10.2773 4.33115 2.7621
533 2 13.3989 10.7239 6.95625 1.7446
534 2 16.1656 11.4773 7.97984 2.99361
100 1 18.088 13.1679 6.10443 2.06424
160 1 20.0964 8.87104 6.01828 1.87802
171 1 20.2819 11.6757 5.07329 0.835729
604 2 17.7742 10.1752 4.31619 2.64635
605 2 18.047 10.6217 6.76029 2.13108
606 2 20.0387 11.4032 7.97006 1.60734
172 1 22.5535 12.8421 6.37784 1.94126
232 1 24.7737 8.85494 6.63308 2.00729
243 1 24.9127 11.4742 5.6998 1.79352
676 2 22.3564 10.5584 4.34077 2.50153
677 2 22.2186 10.09 6.99995 1.60503
678 2 24.3345 11.2684 8.21436 2.10645
244 1 27.1219 12.5544 6.33616 2.12659
748 2 27.2827 10.2671 4.45272 2.91041
749 2 27.0322 9.6922 7.82208 2.14294
304 1 29.2094 8.97586 6.60646 1.6229
315 1 29.3267 11.6099 5.59842 0.834659
316 1 31.3929 13.1226 6.348 1.90462
750 2 29.3471 12.0708 8.12972 1.75687
820 2 31.6709 10.4102 4.41998 1.5377
821 2 31.884 10.2543 7.31874 1.68655
376 1 34.1181 9.05077 6.09769 0.885755
387 1 34.3369 11.6251 5.45894 2.03905
388 1 36.2879 12.9909 6.46759 0.732176
461 2 35.5784 10.6864 7.46257 5.33979
822 2 33.727 11.7077 8.14981 2.01857
472 2 11.2698 14.5248 4.65954 1.4184
39 1 13.1661 16.0159 5.45817 1.82924
40 1 15.6078 16.9455 6.32277 0.635797
474 2 13.4509 15.4177 8.20095 3.00512
544 2 15.5389 14.4391 4.56131 1.49866
545 2 15.4663 14.4405 7.34658 1.37152
111 1 17.7958 15.7431 5.29882 0.823123
112 1 20.0941 16.8018 6.28468 0.729566
546 2 17.7969 15.9582 8.17073 3.08231
616 2 19.8383 14.4656 4.64945 3.6949
617 2 20.2919 13.9392 7.56204 1.45577
183 1 22.1912 15.5943 5.18185 1.82631
184 1 24.7022 16.8774 6.24435 1.43033
618 2 22.2452 15.5132 8.73416 2.10412
688 2 24.7211 14.0604 4.64415 1.59719
689 2 24.5718 14.2132 7.33927 1.88702
255 1 27.2785 15.8209 5.43371 2.04633
690 2 26.4941 15.38 8.20855 2.10954
256 1 29.452 17.2598 6.348 2.66733
327 1 31.7683 15.654 5.44836 1.61974
760 2 29.2097 14.2557 4.80168 1.40447
761 2 28.4424 14.739 7.49927 3.07995
762 2 31.5382 15.804 7.98045 3.10451
328 1 34.0216 16.81 6.33049 0.828087
399 1 36.3759 15.6725 5.46477 1.58209
832 2 34.008 14.3436 4.50576 1.29505
833 2 33.6375 14.1767 7.15184 3.27618
834 2 36.1322 15.6678 8.51468 2.81229
400 1 38.4811 17.3789 6.49039 0.727559
473 2 38.3935 14.7234 7.31214 1.48838
51 1 15.8644 19.4551 5.469 1.3768
484 2 13.4407 18.7828 4.3903 2.83913
486 2 15.8824 19.2349 7.97699 1.91
496 2 15.9365 22.5379 4.74222 3.09651
52 1 18.2104 21.1876 6.5146 2.33426
123 1 20.255 19.6652 5.75294 1.58179
556 2 18.2327 18.2181 4.67289 2.82635
557 2 17.9591 18.3708 7.14186 2.5924
558 2 20.3095 20.2321 8.18452 1.98577
568 2 20.0337 21.9864 4.70517 1.48603
569 2 20.5436 22.5198 7.23694 2.57753
124 1 22.7277 20.8088 6.35753 1.32535
195 1 24.8829 19.2957 5.53766 2.11823
628 2 22.802 18.2016 4.32615 4.04662
629 2 22.4281 18.189 7.52636 1.75422
630 2 24.8345 19.7813 8.63104 2.94632
640 2 25.0124 21.8804 4.6983 2.88672
641 2 24.8728 22.2976 7.48713 2.43772
196 1 27.3098 21.0002 6.23101 0.710329
700 2 26.8966 18.0119 4.04291 3.66774
701 2 27.0184 18.5031 6.98646 4.04805
267 1 29.3314 19.4948 5.22334 1.97081
268 1 31.8832 21.1356 6.12795 1.72826
702 2 29.396 19.8919 7.96901 1.51681
712 2 29.455 21.7916 4.24547 2.92569
713 2 29.7894 21.9569 6.89799 3.24438
772 2 31.8558 18.2683 4.64471 1.89633
773 2 32.0111 18.9685 7.53773 2.65089
339 1 34.0298 19.4755 5.43416 1.72254
340 1 36.3444 21.0894 6.09139 1.21195
774 2 34.3639 19.5375 8.24802 1.85109
784 2 34.1017 22.6658 4.54282 3.53004
785 2 34.0157 21.9846 7.41782 2.75726
844 2 36.2108 18.3525 4.04609 1.39788
845 2 36.2377 18.6693 6.91724 3.4692
411 1 38.6205 19.8463 5.31562 0.615552
412 1 41.1329 21.1551 6.29859 0.693772
485 2 40.6229 18.3651 7.39816 2.19974
846 2 38.6325 19.7366 8.15087 2.0591
856 2 38.6619 22.1388 4.34969 2.1446
857 2 38.8114 22.4771 7.03404 2.96511
497 2 15.9663 22.0791 7.46922 2.30623
63 1 17.9615 23.6892 5.45981 1.97313
64 1 20.6285 24.9454 6.6756 1.74286
498 2 18.1737 23.7138 8.01893 2.59072
135 1 22.716 23.5417 5.67495 1.27195
136 1 25.0551 24.9387 6.58123 1.37766
570 2 22.5421 23.7208 8.75917 3.1918
207 1 27.1564 23.1425 5.29022 2.09925
642 2 27.0451 23.5835 8.05156 2.62906
208 1 29.4965 24.5927 6.44526 1.95006
279 1 31.8552 23.5098 5.41677 0.859214
714 2 31.3761 23.8161 8.29628 3.75464
280 1 34.0301 24.6075 6.25782 3.1549
351 1 36.5014 23.6455 5.49595 1.52876
786 2 36.6634 23.458 8.54172 4.51488
352 1 38.7199 25.2144 6.19578 0.813667
423 1 40.7291 23.5129 5.40507 0.676754
858 2 41.0687 23.4914 8.02659 2.585
424 1 42.8705 24.906 6.23413 1.92913
439 2 47.1969 27.4758 11.2616 1.98956
511 2 24.842 27.4074 11.063 2.49554
583 2 16.1525 3.85225 10.9639 3.57696
655 2 20.0954 3.77149 10.8619 1.78094
727 2 24.7766 3.73947 10.9129 1.58112
799 2 43.227 27.0998 10.7619 2.90684
5 1 9.22709 5.38016 9.07634 1.83453
6 1 11.3676 6.51065 10.0827 1.79736
7 1 11.0997 6.40061 13.1158 1.78887
440 2 8.66111 4.97436 11.8354 1.24355
451 2 9.33866 7.71809 10.9004 3.14798
77 1 13.4852 5.30267 9.28432 0.736473
78 1 15.8811 6.36129 10.3246 1.60627
79 1 15.4642 6.33611 13.1677 2.11929
512 2 13.4611 5.16156 11.8813 3.42187
523 2 13.5897 8.12435 10.8669 3.36265
149 1 18.0455 5.19732 9.47496 0.953424
150 1 20.3979 6.24001 9.94403 0.955478
151 1 20.5502 6.68228 12.6127 1.76839
584 2 17.7573 5.53274 12.4261 1.82171
595 2 18.6879 7.91927 10.847 1.92499
221 1 22.8844 5.12597 9.02992 0.758652
222 1 25.0095 6.19055 9.83483 0.779773
223 1 24.889 6.4912 12.6433 0.624936
656 2 22.7021 5.08202 12.0103 2.13266
667 2 22.4889 7.3585 10.6933 3.53455
293 1 27.2004 5.03513 8.7996 0.88552
728 2 27.3648 4.84981 11.8195 2.86164
739 2 27.4266 7.78007 11.2372 3.36364
294 1 29.3495 6.15153 10.1371 2.09734
295 1 29.5079 6.20471 12.9448 1.90769
365 1 31.4739 5.15361 8.97636 1.41366
800 2 31.8303 5.20952 11.939 2.61764
811 2 31.4376 8.08215 10.7649 2.13016
366 1 34.0709 6.53663 10.1486 2.48532
367 1 33.9976 6.16466 12.966 2.27463
17 1 11.2497 9.18559 9.14093 1.81058
452 2 11.1304 9.34687 11.9123 3.05871
463 2 11.1615 11.5231 10.8254 1.43389
18 1 13.4962 10.5166 9.61189 2.35302
19 1 13.6677 10.3206 12.5214 2.15597
29 1 13.9162 13.0311 9.12489 2.08014
89 1 15.8315 8.9819 9.07343 1.4823
464 2 13.2044 12.9594 11.7974 1.90896
524 2 16.6572 8.91997 11.753 2.72126
535 2 15.4288 11.5346 10.9172 3.0772
90 1 17.7934 10.6482 9.92366 0.900693
91 1 18.4281 10.2732 12.7052 0.861947
101 1 18.0046 13.0701 9.28164 0.696778
161 1 20.3275 9.02605 9.17566 2.15105
536 2 17.5686 12.6874 12.2847 4.08998
596 2 20.9383 9.03058 11.8532 5.424
607 2 20.1517 11.8753 10.6965 4.65221
162 1 22.5275 10.236 10.0637 0.767466
163 1 22.4578 10.5593 12.6741 1.03539
173 1 22.656 13.062 9.51333 2.32652
233 1 24.7965 8.93071 9.66884 2.83222
608 2 22.5088 12.9569 12.0174 2.84609
668 2 24.9015 9.09098 12.1811 2.94393
679 2 24.8269 11.4767 11.0515 3.24378
234 1 27.2115 10.2606 10.5245 0.893008
235 1 26.9197 10.5608 12.958 0.704007
245 1 26.8539 12.6365 9.20546 1.88923
680 2 27.0386 13.0454 11.7163 2.51621
305 1 29.1652 8.71379 9.58487 2.56817
306 1 31.6104 10.5178 10.1264 1.53773
307 1 31.8118 10.6505 12.8179 1.68792
317 1 31.5449 13.2159 9.31066 1.90122
740 2 29.0673 9.13315 12.127 1.61643
751 2 29.4377 11.9385 11.1171 2.52819
752 2 31.9637 13.1451 11.8884 4.14341
377 1 33.8425 9.35072 9.05976 2.10176
378 1 36.0512 10.2998 10.2589 0.769578
379 1 36.1668 10.2307 12.7558 0.766763
389 1 36.4717 12.9099 9.14377 1.56547
812 2 33.7099 8.56792 12.0365 1.82166
823 2 33.9554 11.6153 11.2575 2.73279
824 2 36.5581 13.2795 11.7238 1.57633
30 1 16.0055 14.5346 10.3926 2.49403
31 1 15.6479 14.2354 13.2292 1.8189
41 1 15.5986 16.9862 9.28473 1.79898
476 2 15.4295 16.8223 12.332 3.37207
102 1 20.2823 14.2368 10.3331 2.62224
103 1 19.954 14.2464 12.987 1.44906
113 1 20.0317 16.86 9.04316 1.60475
547 2 18.1589 15.2612 11.2394 3.53886
548 2 19.9712 16.7775 12.0627 1.31363
174 1 24.6865 14.3876 10.1207 0.742627
175 1 24.6362 14.2431 12.8222 1.40881
185 1 24.7658 16.9962 9.13979 1.48122
619 2 22.4612 15.7446 11.1161 1.456
620 2 24.4801 17.1112 12.2589 1.65914
691 2 26.8278 15.9664 10.7975 3.85536
246 1 29.138 14.3316 9.99514 1.91419
247 1 29.8306 14.453 12.7045 2.21611
257 1 29.0858 16.791 8.90121 2.29976
692 2 29.515 17 12.034 1.45294
763 2 31.8273 15.6597 11.3981 2.89758
318 1 34.0672 14.2993 10.2002 1.38682
319 1 34.0661 14.5028 12.8307 0.701161
329 1 33.9263 16.6879 8.75373 1.11185
764 2 34.0115 17.1783 11.1952 3.88195
835 2 36.3615 15.825 11.0547 2.30229
390 1 38.7999 14.4485 9.90812 1.55741
391 1 38.6518 14.7298 12.8051 1.72728
401 1 38.7118 17.0847 9.06547 0.615745
475 2 13.573 15.7631 10.7382 2.70509
836 2 38.4674 17.297 11.934 2.22557
42 1 17.8687 17.8992 10.2142 1.69304
43 1 17.6969 18.1683 13.1216 1.56027
53 1 17.9171 20.9524 9.37935 1.63345
54 1 20.3148 22.0528 10.2286 0.729148
55 1 20.282 22.293 12.836 1.48541
488 2 18.0186 20.5845 12.5666 2.09575
559 2 19.9027 19.5635 11.2146 1.32756
114 1 22.4871 18.5153 10.2125 2.175
115 1 22.455 18.4379 13.0951 1.46617
125 1 22.8115 21.2459 9.14004 2.21732
126 1 24.9844 22.252 10.1851 0.911282
127 1 24.9454 22.3564 12.8107 1.92379
560 2 22.2741 21.0183 11.8172 3.30064
631 2 25.1903 20.1194 11.1913 2.33725
186 1 27.1732 18.3279 9.97389 1.5003
187 1 27.0895 18.1592 12.9447 1.29188
197 1 27.1774 20.9305 9.12097 0.543043
632 2 27.2889 20.999 12.0353 2.32693
198 1 29.227 22.3579 9.99866 0.702274
199 1 29.4003 22.4281 12.7217 1.60077
258 1 31.8277 17.9091 9.76384 3.13531
259 1 31.9433 18.3508 13.0828 2.04463
269 1 31.9168 21.002 9.06033 2.58697
703 2 29.3527 19.5242 10.8775 2.32752
704 2 31.5065 21.0753 11.7137 1.58088
270 1 34.2046 22.2625 9.93658 0.757425
271 1 33.9787 22.5257 12.7379 1.0712
330 1 36.3104 18.3625 10.1811 0.739508
331 1 35.9898 18.3054 12.633 0.771588
341 1 36.3926 20.8626 9.20871 1.49967
775 2 33.8372 19.8387 10.7384 3.53516
776 2 36.3745 20.8301 11.9863 2.73291
342 1 38.6315 22.3431 10.0958 1.61873
343 1 38.436 22.355 12.8118 0.562527
402 1 40.8233 18.2669 10.3921 0.788154
403 1 40.8556 18.4642 12.927 0.87246
413 1 40.9042 20.6814 8.90222 1.67674
847 2 38.4667 19.8893 10.9471 2.45023
848 2 40.7537 21.2318 11.5396 2.06747
414 1 43.0245 22.2477 10.0634 1.90823
415 1 43.1566 22.379 12.9148 1.52466
487 2 15.9525 19.5885 11.1272 2.97758
65 1 20.2119 24.6181 9.40275 0.785166
500 2 20.6227 24.9643 12.235 3.03634
66 1 22.6867 25.953 10.1449 1.74906
67 1 22.874 26.1489 12.7766 1.91472
137 1 25.1534 25.0133 9.29086 0.669383
571 2 22.6905 23.6428 11.1398 2.95583
572 2 25.035 24.5593 12.2632 4.54109
138 1 27.265 26.4594 10.2656 2.0897
139 1 27.0034 26.0228 13.0174 0.931902
643 2 27.1741 23.9803 11.052 3.12074
209 1 29.301 24.7461 9.25157 0.705561
210 1 31.6274 26.2171 9.73243 1.88019
211 1 31.4919 26.444 12.8202 1.67251
644 2 29.574 25.1321 11.7999 2.56568
715 2 31.7453 23.5598 10.7125 1.48852
281 1 33.8192 24.9862 8.7677 1.5811
282 1 36.3687 26.1702 9.50111 2.57705
283 1 36.085 26.1399 12.8434 1.97014
716 2 33.8414 24.8394 11.6676 1.48342
787 2 36.1403 23.3896 11.1611 1.49598
353 1 38.6738 24.8065 8.9232 0.871633
354 1 40.6091 26.2635 9.90196 1.72075
355 1 40.816 26.1349 12.6722 1.92788
788 2 38.4439 24.9819 11.9728 2.95452
859 2 40.9406 23.9723 11.0416 2.88547
425 1 42.9926 24.763 9.39329 2.00038
426 1 45.3482 26.0633 10.0093 1.61957
427 1 45.3561 26.2142 12.8431 0.723052
499 2 17.966 23.236 10.928 4.0741
860 2 43.4018 24.8523 12.1168 3.37437
441 2 23.0019 28.5363 14.5715 3.05973
442 2 11.0132 6.5316 15.9803 1.62726
8 1 13.2878 8.00291 13.4482 2.87244
9 1 13.3969 7.75813 16.2544 1.90722
513 2 13.4998 5.41426 14.8643 2.55327
514 2 15.8706 6.11335 15.653 1.4947
80 1 18.1617 7.94447 13.9007 1.77315
81 1 17.9608 7.84139 16.7502 0.674596
585 2 18.0292 5.16998 14.8209 1.41663
586 2 20.5748 6.4556 15.2419 1.84507
152 1 22.7846 7.96359 13.627 0.762075
153 1 22.4144 7.91418 16.595 0.889074
657 2 36.2617 28.4858 14.4831 3.27536
658 2 24.6502 6.18587 15.3111 4.82173
224 1 27.1104 7.59211 13.6572 1.51936
225 1 26.9866 7.87751 16.494 1.90913
729 2 40.9303 28.5805 14.3102 1.6628
296 1 31.6132 7.95215 13.9554 2.22689
297 1 31.6774 7.62646 16.6611 1.24128
730 2 29.232 6.15385 15.886 2.21212
801 2 31.8973 5.15667 14.7618 2.94631
368 1 36.2249 7.62247 13.5556 0.735598
369 1 36.2512 7.86748 16.3974 1.98105
802 2 34.0438 6.46255 15.8512 1.83201
453 2 38.3363 9.15825 14.5959 2.59906
10 1 15.6451 8.96591 17.3973 1.75703
20 1 15.6876 11.5443 13.7122 1.54725
21 1 15.5955 11.8282 16.5594 0.636693
454 2 13.6471 10.1337 15.6003 3.01828
525 2 16.0368 9.0274 14.7854 2.71429
22 1 18.0346 12.7993 17.4696 0.633025
82 1 20.243 8.98693 17.4063 0.694803
92 1 20.3718 11.5641 13.6353 0.827519
93 1 20.1731 11.5817 16.393 1.88508
526 2 17.8905 10.5518 15.6327 2.51475
537 2 17.8383 13.1895 14.7223 2.71772
597 2 20.4837 9.22633 14.7766 3.18487
94 1 22.5623 12.8577 17.68 0.961255
154 1 24.8308 9.01239 17.5616 1.36967
164 1 24.8249 11.5951 13.7727 0.70361
165 1 24.8869 11.6782 16.8134 1.45828
598 2 22.8709 10.0295 15.6186 4.44909
609 2 22.0854 12.559 14.8019 5.12927
669 2 24.8466 9.40912 14.7721 3.47247
166 1 27.1702 13.2077 17.801 1.92266
670 2 27.1563 10.4333 15.6616 2.96726
681 2 27.2981 13.04 14.4965 2.91746
226 1 29.2392 9.35376 17.6512 2.15312
236 1 29.51 11.8854 13.7351 1.30264
237 1 29.3439 11.8128 16.5323 1.89182
238 1 31.8654 12.8743 17.6416 2.00631
741 2 29.2481 9.34286 15.0988 1.74474
742 2 31.4397 10.517 16.4766 3.20973
753 2 32.2602 13.0293 14.6263 3.32486
298 1 34.006 8.99485 17.2946 1.45844
308 1 34.2563 11.8938 13.8803 2.39122
309 1 34.1947 11.8726 16.4866 0.637817
310 1 36.0005 13.2589 17.4844 2.10362
813 2 34.0824 9.31531 14.5082 2.59827
814 2 36.5878 10.487 15.3313 3.09398
825 2 36.5294 13.0563 14.7791 1.55629
370 1 38.6758 9.16729 17.5254 1.41832
380 1 38.7414 11.59 13.7477 2.25031
381 1 38.7364 11.7915 16.5327 1.73053
382 1 41.0599 13.121 17.7903 0.631057
465 2 41.0864 13.2564 14.9464 1.94344
466 2 15.7395 14.6944 16.1476 3.73092
32 1 17.8584 15.5393 13.9994 0.567965
33 1 17.896 15.4827 16.9016 0.644902
34 1 20.4769 16.6741 17.5785 1.41309
538 2 20.235 14.4169 15.7502 2.29385
549 2 20.2798 16.9663 14.812 1.13472
104 1 22.6323 15.6333 13.9524 1.19411
105 1 22.6637 15.4237 16.6983 0.618325
106 1 25.2574 16.6426 17.388 1.02952
610 2 24.9348 14.0658 15.7219 2.85631
621 2 25.0507 16.6259 14.9769 3.42815
176 1 27.3558 15.5629 13.7687 2.03953
177 1 27.2907 15.6451 16.3526 0.866651
178 1 29.2724 16.8716 17.3704 0.800672
248 1 31.8555 15.7015 14.0153 0.791529
249 1 31.5538 15.2911 16.5574 2.04928
682 2 29.5705 14.0962 15.3988 2.87296
693 2 29.3795 17.1061 14.7406 2.65739
250 1 33.8278 16.8933 17.6116 0.864443
320 1 36.2561 15.7367 13.6948 1.48508
321 1 36.1221 15.8889 16.468 1.40473
754 2 34.3479 14.3757 15.4145 3.13512
765 2 33.7815 17.2832 14.7229 3.85231
322 1 38.2301 17.4429 17.6634 2.47626
392 1 40.7783 15.8727 13.9521 1.85678
393 1 40.7401 15.7262 16.6773 1.8778
826 2 38.6175 14.2454 15.7881 2.01042
837 2 38.4001 16.7587 14.9309 2.79893
394 1 43.2534 16.9211 17.6277 0.604818
477 2 42.8567 16.8247 14.7061 2.42483
44 1 20.1961 19.5835 14.1855 1.2479
45 1 20.1737 19.4412 16.8236 2.01575
478 2 18.0719 17.8604 15.7503 2.40376
490 2 20.5414 22.1241 15.6685 1.14446
46 1 22.5855 20.7387 17.7424 1.25893
116 1 24.9071 19.2984 14.0396 1.82027
117 1 24.6746 19.3714 16.6408 1.31718
550 2 22.8025 17.8277 15.4825 2.63346
561 2 22.7073 20.6763 14.9186 2.46271
562 2 24.948 22.3284 16.2347 2.25638
118 1 27.2889 20.7817 17.6273 1.72243
622 2 27.2359 18.3788 15.8894 2.29489
633 2 26.6302 21.1651 14.5902 2.18359
188 1 29.3825 19.707 13.764 1.56094
189 1 29.4114 19.5733 16.3575 0.729192
190 1 31.6277 20.7879 17.3242 1.70172
634 2 29.4844 22.2447 15.977 2.40685
694 2 31.4232 18.149 16.1234 4.41525
705 2 31.5722 21.2338 14.7932 2.7612
260 1 33.8709 19.924 13.476 1.97294
261 1 33.7903 19.4627 16.4789 1.87064
262 1 36.4045 21.0682 17.5526 1.38002
706 2 34.1759 22.3984 15.2767 2.6297
766 2 36.384 18.4186 15.494 1.61494
777 2 36.2766 20.8169 14.5546 1.87894
332 1 38.4843 19.4144 13.7002 2.00508
333 1 38.8827 19.8164 16.4509 2.50652
334 1 40.9308 20.8832 17.7122 0.627876
778 2 38.2405 22.577 15.5503 2.88729
838 2 40.6027 18.4102 15.8602 2.5895
849 2 40.5353 21.0929 14.8241 2.50336
404 1 43.0178 19.5691 13.8844 0.579818
405 1 43.0466 19.394 16.7398 1.23891
406 1 45.4339 20.8801 17.8597 1.49735
489 2 45.2878 20.8222 15.1983 1.55331
850 2 43.1523 21.7395 15.6073 1.84867
56 1 22.8634 23.3283 13.9147 0.695632
57 1 22.7009 23.3106 16.4767 1.14714
58 1 24.9972 24.4458 17.7373 1.49287
502 2 22.7155 25.8172 15.7068 1.40085
573 2 25.071 24.9999 14.8362 2.4082
128 1 27.3005 23.5863 13.6262 0.605827
129 1 27.2605 23.2723 16.6434 1.8049
574 2 27.3721 26.1456 15.5204 2.84631
130 1 29.6244 24.6008 17.6557 1.72279
200 1 31.6881 23.8908 13.823 1.4199
201 1 31.8259 23.4437 16.4009 0.696202
645 2 29.5552 24.6959 14.7949 2.47213
646 2 31.7148 26.327 15.7922 2.43737
202 1 33.7681 24.9467 17.2327 1.60108
272 1 36.2712 23.8285 13.8127 0.706959
273 1 36.2048 23.565 16.6997 2.09504
717 2 34.1731 25.2926 14.4494 3.42004
718 2 36.9034 25.9282 15.159 2.51814
274 1 38.6062 24.5329 17.4214 0.967882
344 1 40.5786 23.2578 13.7492 2.08964
345 1 40.9108 23.4509 16.7054 1.6581
789 2 39.2288 24.9926 15.1412 2.4643
790 2 40.9717 26.4327 15.1239 5.28147
346 1 43.1504 25.1207 17.5462 1.91178
416 1 45.3964 23.5953 13.7337 1.69163
417 1 45.3096 23.5916 16.5697 1.85127
861 2 43.0478 24.7945 14.826 2.79112
862 2 45.1661 26.5223 15.6739 1.94846
418 1 47.6709 24.9214 17.7051 1.32179
501 2 47.765 24.8215 15.0148 1.58309
68 1 25.1301 27.503 13.9234 0.770878
69 1 25.3094 27.3231 16.6593 2.18766
70 1 27.4863 28.8148 17.6549 1.59434
140 1 29.2099 27.3594 13.6361 0.968891
141 1 29.5845 27.2956 16.7125 1.32434
142 1 31.888 28.7996 17.448 2.10363
212 1 33.995 27.5921 13.583 1.68663
213 1 34.2713 27.3367 16.394 1.79666
214 1 36.3394 28.9292 17.3987 1.65036
284 1 38.4231 27.7472 13.814 1.17279
285 1 38.4824 27.7308 16.4983 2.30254
286 1 41.2274 29.1654 17.5602 3.07503
356 1 43.2219 27.2835 13.4149 0.816664
357 1 42.5908 27.3465 16.3133 1.30978
358 1 45.3254 28.4978 17.2906 1.03181
428 1 47.7085 27.1273 13.7666 1.89657
429 1 47.793 27.5828 16.6468 0.738408
430 1 50.0527 28.853 17.2993 1.552
443 2 24.9931 29.8731 18.8161 1.7909
444 2 13.5848 7.55122 19.2478 2.33568
515 2 29.8737 30.1249 18.6945 3.16865
516 2 18.3575 7.84712 19.1893 2.96931
587 2 20.3016 6.49024 17.8658 3.37937
588 2 22.8653 7.86251 19.1375 3.20655
659 2 38.5235 30.0918 18.6015 2.57656
660 2 27.3939 7.69088 19.3338 1.38899
721 2 18.0551 -0.1365 -0.0572529 1.44527
731 2 29.9063 6.69385 18.5563 1.81641
732 2 32.1064 7.79706 19.6116 1.79926
793 2 22.8527 -0.0973806 -0.156394 1.3002
803 2 47.5563 29.6496 18.3917 2.07674
804 2 36.4071 7.77933 19.2944 2.23918
11 1 15.6092 8.95848 20.0325 1.89774
455 2 13.5991 10.2898 18.3376 2.52924
456 2 15.5324 11.8735 19.4208 2.84776
12 1 17.9495 10.379 21.4377 2.00351
23 1 17.9764 12.7916 20.3723 1.26071
83 1 20.5369 8.76897 20.3274 1.93605
527 2 17.6143 10.5566 18.6421 1.55701
528 2 20.3754 11.4078 18.9966 1.96941
84 1 22.4687 10.1298 21.4472 0.658015
95 1 22.5296 12.857 20.4327 1.2526
155 1 25.047 8.8625 20.7394 1.92186
599 2 22.5174 9.98001 18.1382 4.09928
600 2 24.5749 11.5776 19.5142 1.41979
156 1 27.195 10.1799 21.645 1.70543
167 1 27.2398 13.0542 20.5472 2.17657
671 2 27.1609 10.1899 18.7374 1.47962
227 1 29.4864 9.28105 20.6793 1.95666
228 1 32.0585 10.6615 21.1477 1.64748
239 1 31.792 13.3479 20.1532 0.891692
672 2 29.4633 11.9629 19.4278 3.37108
743 2 31.5689 9.90889 18.6489 1.94952
299 1 34.1854 9.1613 20.1521 1.39244
300 1 36.539 10.3892 20.8987 1.48121
311 1 36.4932 13.1789 20.2567 1.62787
733 2 20.5799 3.82719 -0.172753 3.20659
744 2 34.2433 11.6433 19.086 3.06383
815 2 36.3053 10.2248 18.1507 1.30033
371 1 38.8224 9.01585 20.1021 0.834851
372 1 40.613 10.4973 20.9739 2.48705
383 1 40.9148 13.2466 20.5711 1.59143
805 2 25.0318 4.04301 -0.180843 2.18295
816 2 38.7299 11.5552 19.2747 2.80081
24 1 20.251 14.222 21.3664 1.31924
35 1 20.2429 17.068 20.3864 1.60567
468 2 18.0708 15.4606 19.7099 1.21259
539 2 20.1133 14.0932 18.5076 1.32455
96 1 24.606 13.9443 21.4866 2.1
107 1 25.0246 16.722 20.2901 2.04305
540 2 22.0449 15.5293 19.5025 1.75223
611 2 24.3385 14.4389 18.7608 1.97177
612 2 27.2992 15.5145 19.1704 2.7709
168 1 29.3163 14.2285 21.3692 0.870835
179 1 29.4095 16.6773 20.0971 1.64008
683 2 29.4905 14.4422 18.1987 2.69257
684 2 31.7585 15.8201 19.3696 2.61689
240 1 34.0164 14.3595 20.8488 2.02317
251 1 34.5547 17.0366 20.0625 0.98814
745 2 36.4659 15.6979 22.142 3.14288
755 2 33.9291 14.6462 18.1965 3.92428
756 2 36.7295 15.8726 19.5311 3.69059
312 1 38.429 14.4917 21.1343 0.576249
323 1 38.7351 17.1321 20.4262 0.709131
817 2 27.3707 8.21084 0.0927949 1.6511
827 2 38.3851 14.4242 18.1004 1.60503
828 2 40.982 15.5759 19.6195 1.63838
384 1 43.2131 14.4666 21.5509 1.12724
395 1 42.9629 17.1461 20.5199 1.52451
467 2 15.994 14.2828 18.5009 2.98503
480 2 20.3572 19.6348 19.6699 2.09454
36 1 22.773 18.3667 21.4184 1.61749
47 1 22.5333 20.7888 20.458 0.672024
48 1 25.0142 21.8823 21.4888 2.64528
551 2 22.9354 17.8026 18.5452 1.79011
552 2 24.7296 19.3534 19.5268 2.10779
563 2 24.3552 21.909 18.9428 2.39944
108 1 27.1189 17.8027 21.3235 1.78826
119 1 27.1707 20.5545 20.3685 1.4276
623 2 27.0768 18.0585 18.696 2.34044
120 1 29.3774 22.2511 21.6599 1.8424
180 1 31.8375 17.9904 20.9382 1.88813
191 1 31.9229 20.7715 20.4274 2.23213
624 2 29.5412 19.6417 19.6922 1.5947
635 2 29.9134 22.4644 18.7192 1.85576
695 2 31.4744 18.072 18.3249 3.22625
192 1 34.113 22.2549 21.3407 1.49569
252 1 36.5535 18.384 21.1046 0.888355
263 1 36.2587 20.9057 20.0852 0.850987
696 2 34.1263 19.4661 19.2627 3.47377
707 2 33.8381 22.0187 17.9602 1.75982
767 2 35.9591 18.4358 18.4498 3.0657
264 1 38.4872 22.2924 21.3122 0.800158
324 1 40.6794 18.4877 21.4304 0.784331
335 1 40.7855 21.0463 20.2408 0.598939
757 2 38.6475 19.4367 22.0142 3.11151
768 2 38.5964 19.8547 19.4368 2.66941
779 2 38.7473 22.3819 18.6448 4.11816
839 2 41.0153 18.3428 18.6951 2.25041
336 1 43.2442 22.1816 21.2302 1.37866
396 1 45.5958 18.3519 21.4532 1.38571
407 1 45.4787 20.9823 20.3441 0.624531
479 2 45.2641 18.2302 18.8535 2.58817
829 2 43.5535 19.6216 22.0894 4.28496
840 2 43.1193 19.9357 19.3602 2.71827
851 2 43.0975 22.2524 18.2721 2.59873
408 1 47.8 22.2626 21.2412 2.09636
491 2 20.4697 22.3364 18.5835 2.71827
59 1 25.0461 24.5135 20.476 0.777539
492 2 22.4452 23.8925 19.1018 4.28162
503 2 22.6239 25.9575 18.11 1.69682
60 1 27.1117 25.9547 21.2257 1.95801
564 2 27.4897 23.1321 19.1988 3.08402
575 2 27.2801 26.094 18.3365 1.66742
131 1 29.5631 24.8935 20.5542 0.828402
132 1 31.6199 26.4624 21.1696 1.51555
636 2 31.7154 24.0305 19.1447 1.75009
647 2 31.9715 26.5284 18.618 2.1212
203 1 34.2095 25.0763 20.4141 2.05663
204 1 36.3809 26.1547 21.2139 1.51215
708 2 35.9135 23.298 19.4526 3.27678
719 2 36.2864 25.7084 18.7294 2.09646
275 1 38.556 24.5978 20.0364 2.22088
276 1 40.9749 26.2541 21.2858 1.90117
769 2 27.0316 15.6891 -0.115218 3.12025
780 2 40.8883 23.6733 19.7068 3.30624
791 2 40.4657 26.1394 17.6941 1.73302
347 1 43.1693 24.8485 20.2811 1.73973
348 1 45.8133 26.1387 21.4385 2.23255
841 2 31.2973 16.2399 -0.0902781 5.53818
852 2 45.3188 23.4981 19.5111 2.14097
863 2 45.0199 25.9451 19.1301 5.5071
419 1 47.7613 24.7013 20.281 0.744882
420 1 50.3231 25.9371 21.1575 1.9224
504 2 24.7171 27.2414 19.6961 1.82234
71 1 27.0583 28.877 20.5316 1.65596
72 1 29.412 30.0414 21.2441 0.705821
143 1 31.7442 29.2627 20.4154 2.1722
576 2 29.7262 27.4343 19.5596 2.36423
144 1 34.4592 30.0513 21.159 0.779009
215 1 36.6027 28.9722 20.0775 2.43909
648 2 34.0086 27.8083 19.4856 1.98497
216 1 38.6257 29.9219 21.2448 1.01173
287 1 41.1055 28.8314 20.4747 1.65944
720 2 38.6809 27.0768 19.1308 1.9216
288 1 43.2749 30.2018 21.2691 1.2673
359 1 45.4449 28.6159 19.7632 3.09496
781 2 43.533 27.7152 21.9137 1.78804
792 2 42.6681 27.545 19.0459 3.61641
360 1 47.8529 30.0569 21.1687 1.48983
431 1 50.1411 28.8576 20.2409 1.12027
853 2 48.2414 27.3945 22.1066 2.08167
864 2 47.701 27.2635 19.6311 2.69177
432 1 52.2778 30.1067 21.4786 0.706481
ITEM: TIMESTEP
200
ITEM: NUMBER OF ATOMS
864
ITEM: BOX BOUNDS xy xz yz pp pp pp
-2.7572523550576955e-01 5.4774940597810179e+01 1.3778404934666804e+01
-2.6062493679983734e-01 3.1552011638983132e+01 1.3765888067979629e+01
-2.3549956802262653e-01 2.2244101513855661e+01 7.9477391816822962e+00
ITEM: ATOMS id type x y z f_grace_gamma
433 2 13.6522 8.00655 22.0026 1.86015
434 2 2.15202 1.32833 0.890909 1.57927
435 2 16.279 24.8179 3.63711 4.10659
445 2 43.1833 11.8122 22.2158 2.62976
1 1 4.56004 2.25457 1.78793 1.68678
2 1 6.91575 3.58492 2.89979 1.67511
505 2 32.0462 31.4743 22.1894 1.58749
506 2 6.80728 0.696195 0.704033 2.96832
507 2 20.5186 24.241 3.56337 1.89541
517 2 20.2707 11.4305 22.1892 3.19357
73 1 8.74906 2.13989 1.52208 1.11732
74 1 11.2092 3.57824 2.58754 1.88364
577 2 36.9067 31.2295 21.59 4.23348
578 2 10.9618 0.907162 0.548795 3.19899
579 2 25.2006 24.6672 3.75898 1.97311
589 2 25.1248 11.2751 22.181 3.35667
145 1 13.5749 2.11729 2.0475 2.06159
146 1 15.8468 3.7028 2.48088 0.867238
649 2 41.2896 30.8534 22.295 2.26878
650 2 15.2964 0.754599 0.727801 1.9878
651 2 29.3407 24.3952 3.92907 2.02187
661 2 15.8894 3.1761 0.0275034 3.48535
217 1 18.1793 2.72943 1.33784 0.92172
218 1 20.2911 3.79502 2.49384 0.914886
722 2 20.402 0.925726 0.67291 1.45535
723 2 20.4022 1.21435 3.37738 3.35314
289 1 22.756 2.41045 1.09956 2.64552
290 1 25.0245 3.84479 2.57276 1.43531
794 2 25.1558 1.37936 0.39857 2.27881
795 2 25.3672 1.22944 3.43219 1.76323
361 1 27.1755 2.21803 1.47234 2.91624
362 1 29.9438 3.78908 2.63376 2.33714
13 1 6.97037 6.36104 1.53279 2.0686
446 2 4.48971 4.94664 0.66369 3.27218
447 2 4.96308 5.0649 3.54602 3.60291
457 2 4.76848 7.82545 -0.108229 1.82421
14 1 9.04408 7.34256 2.60654 0.808493
85 1 11.381 6.15582 1.64161 2.32561
518 2 8.7452 4.62035 0.949845 3.50005
519 2 9.21159 4.73499 4.0032 4.04043
529 2 22.4121 15.7645 22.2225 3.80848
86 1 13.6434 7.74925 2.56794 1.76084
157 1 15.7962 6.15721 1.47129 0.905557
590 2 13.8638 4.47936 0.818272 3.54632
591 2 13.4312 5.15819 3.09977 4.11845
601 2 27.0564 15.3845 22.0185 3.24197
158 1 17.6575 8.14208 2.3591 3.67989
229 1 19.7807 6.57787 1.43667 2.87412
662 2 18.0738 4.74243 0.388989 4.22354
663 2 17.9848 5.08189 3.3492 3.05967
673 2 31.8735 15.9186 21.7852 3.28195
230 1 22.3858 7.4065 2.8731 3.09376
301 1 25.1089 6.35194 1.68676 2.28686
734 2 22.3817 5.4632 1.12031 2.30177
735 2 22.3979 4.96676 3.65786 1.87588
302 1 26.937 7.94081 2.53789 2.19717
806 2 27.5115 4.82551 1.30744 2.06555
807 2 27.7859 5.38694 3.33472 2.18938
373 1 30.0111 6.16966 1.93466 2.57294
374 1 31.8609 7.66956 2.88869 1.57743
458 2 6.55202 8.94673 0.467472 2.02373
25 1 9.06662 10.1112 1.56941 1.82663
26 1 11.0562 11.7393 2.63374 1.96682
470 2 8.89491 12.6163 0.529061 3.32514
471 2 8.73729 13.1349 3.18932 4.90003
530 2 11.0671 8.81415 0.413161 3.87089
531 2 11.1138 8.97749 2.89421 3.17483
541 2 25.251 19.1826 22.2311 3.34638
97 1 13.236 10.1639 1.61618 0.726355
98 1 15.6524 11.3113 2.61085 2.09923
542 2 13.2839 12.7795 0.614502 3.01273
543 2 13.586 12.9689 3.51809 2.9657
602 2 15.4289 9.12453 0.405828 5.22408
603 2 15.9992 8.66952 3.89137 5.90424
613 2 16.0979 11.7334 -0.0473706 3.20789
169 1 18.2937 10.245 1.29615 1.09544
170 1 20.3056 11.675 2.57026 1.59704
614 2 18.1307 12.9371 0.931831 2.49241
615 2 18.1153 12.923 3.20938 3.18978
674 2 20.7303 8.81842 0.248667 2.19259
675 2 19.8966 8.83257 2.90776 2.51514
685 2 33.5617 19.1283 22.0791 5.4598
241 1 22.9951 10.2439 1.41698 2.66019
242 1 24.7578 11.7197 2.3472 2.49188
686 2 22.388 12.7559 0.638429 4.20979
687 2 22.1729 12.9752 3.57702 2.06682
746 2 25.1847 8.99983 0.599973 2.63691
747 2 24.8646 9.27067 3.84573 1.63949
313 1 27.2813 10.6536 1.63571 1.44553
758 2 27.2403 13.6083 0.384907 4.59404
759 2 27.0031 12.9406 3.75181 1.83127
314 1 29.4293 11.8151 2.66826 1.92084
385 1 31.7501 10.627 1.84093 1.76253
818 2 29.7896 9.32639 0.660232 1.81879
819 2 29.5243 8.58478 3.62269 1.6806
830 2 32.194 12.8309 0.775398 2.77444
831 2 32.0763 13.1484 3.83495 3.07236
386 1 34.2881 11.5125 2.51106 0.783897
459 2 6.53326 9.00183 3.05647 1.73549
469 2 20.4418 19.3719 21.8364 4.42609
37 1 11.0692 14.0873 1.60056 0.80184
482 2 10.9274 16.8028 1.01087 1.95857
38 1 13.246 15.5337 2.37045 2.51404
109 1 15.6611 13.8554 1.95359 2.88968
553 2 13.5801 15.6509 -0.21295 2.95575
554 2 16.2483 17.3633 0.46319 2.63301
555 2 15.4836 17.2231 3.27163 3.27861
110 1 17.8218 15.8018 2.65697 1.76067
181 1 20.2764 14.0812 1.67966 2.26112
625 2 31.9022 23.8017 22.1438 1.41073
626 2 20.3167 16.4553 0.599423 3.89169
627 2 20.2955 17.1831 3.38194 3.20887
182 1 22.4868 15.5599 2.38283 2.08191
253 1 24.7308 14.4898 1.53071 2.1868
697 2 36.4397 23.6353 21.9205 3.63384
698 2 24.7195 17.3612 0.135208 1.81513
699 2 25.1769 16.241 3.29447 2.56057
254 1 27.5191 15.3659 2.74687 2.32709
325 1 29.6414 14.3522 1.64185 0.63035
326 1 32.1994 15.2445 2.41115 2.42122
770 2 29.1474 17.1331 0.833891 3.26793
771 2 29.9008 16.5817 3.60311 1.88016
397 1 34.6019 14.1472 1.934 2.61177
398 1 36.6212 15.9187 2.83291 2.14528
481 2 8.94958 15.224 -0.0844131 3.41316
842 2 34.3548 16.8366 1.30663 1.9789
843 2 34.2684 16.9399 3.64905 4.01748
483 2 38.7524 17.115 3.7176 2.34057
493 2 11.7658 19.8465 0.121851 2.76149
49 1 13.6683 17.9438 1.51848 1.11412
50 1 15.7687 19.4726 2.61608 0.780935
61 1 15.6865 22.1039 1.57294 0.906764
494 2 13.2749 21.0275 0.626962 4.3493
495 2 13.839 20.8971 3.99056 5.34488
565 2 15.0467 19.5983 -0.21525 2.10243
121 1 18.1465 18.317 1.68424 2.21404
122 1 20.5968 19.7297 2.92681 3.17059
133 1 20.4508 22.2833 1.55477 1.52503
566 2 17.6584 20.8265 0.925518 4.04171
567 2 18.0268 20.6595 3.77132 2.30506
637 2 20.133 19.5429 0.388896 2.46782
193 1 22.0927 17.9887 1.32105 2.92828
194 1 24.6713 19.2602 2.58426 1.98474
205 1 25.1244 22.0928 1.59239 0.82979
638 2 22.6096 21.1278 0.325024 1.713
639 2 22.8303 20.9072 3.11307 2.21605
709 2 25.3731 19.5985 0.0884322 4.98407
265 1 26.8671 18.0832 1.55081 0.915876
710 2 27.436 20.6216 1.11572 3.86036
711 2 26.6606 20.5364 3.69464 2.2498
266 1 29.2235 19.2458 2.42245 2.71169
277 1 29.8817 21.897 1.75385 1.99621
337 1 31.7436 18.177 1.55223 1.9694
782 2 32.3369 20.9916 0.115941 2.21842
783 2 31.8809 21.0071 3.19471 1.87206
338 1 34.0238 19.6736 2.52283 1.74441
349 1 34.1882 22.3002 1.64814 1.55155
409 1 36.4345 18.5554 1.44997 2.35839
854 2 36.6932 21.4586 0.638801 1.7619
855 2 36.257 20.784 3.1557 1.99918
410 1 39.2183 19.8495 2.58852 2.27983
421 1 38.962 22.5104 1.95501 3.0238
62 1 18.0404 23.2804 2.67167 1.97732
134 1 22.8466 23.736 2.67727 2.20208
206 1 27.247 23.2062 2.61723 2.56769
278 1 32.0083 23.7613 2.83378 2.46969
350 1 36.4667 23.7945 2.54338 1.18172
422 1 41.3123 23.4223 2.71827 0.761261
3 1 6.93422 4.12308 5.6381 2.41314
436 2 4.72127 2.63589 4.60159 1.53805
437 2 4.87083 2.94345 7.12531 1.87609
438 2 7.04878 3.94832 9.16774 2.57493
75 1 11.3108 3.70876 5.47821 1.28779
508 2 8.94671 2.52633 4.53616 1.36137
509 2 8.80031 2.77129 7.61556 1.889
510 2 11.3053 3.66433 8.51355 3.28986
147 1 16.0343 3.55929 5.21151 2.22335
580 2 13.7207 2.77836 4.76125 3.66596
581 2 27.0574 26.1704 7.73325 3.75441
582 2 15.851 3.64047 7.96109 3.70922
219 1 20.4676 3.39228 5.13279 2.62511
652 2 18.1407 2.34165 3.89224 3.27782
653 2 18.3313 2.63628 6.48006 2.15039
654 2 20.1827 4.26048 7.61035 2.94013
291 1 25.1343 4.15225 5.35964 1.03027
724 2 22.9977 2.30228 4.05567 1.77207
725 2 22.4101 2.37633 6.85222 3.39115
726 2 24.7157 3.76143 8.08489 2.94498
796 2 27.839 2.2336 3.91902 2.39987
797 2 27.2188 2.75512 7.31472 3.29466
363 1 29.5761 3.49655 5.3572 2.24124
798 2 29.964 3.40828 8.13282 2.09328
448 2 6.71032 6.57586 4.12899 1.73295
449 2 6.62686 6.34798 7.33153 1.75593
4 1 9.49505 5.13961 6.41893 0.934039
15 1 9.20913 7.49868 5.14844 2.52576
450 2 9.05142 7.77031 7.86483 1.94954
520 2 11.4869 6.28486 4.24065 3.11111
521 2 11.7929 6.0941 7.18887 3.55656
76 1 14.0135 4.77674 6.37726 2.59361
87 1 13.5846 7.63153 5.28852 1.91729
522 2 13.6902 7.89736 7.75792 2.99512
592 2 16.1484 5.97806 4.49726 3.84831
593 2 16.0542 6.18357 7.87911 4.33076
148 1 18.1085 5.05849 6.42724 2.33827
159 1 17.7599 7.55921 5.58531 0.823409
594 2 17.8705 7.85693 7.97224 3.29479
664 2 20.0327 6.03271 4.36194 1.75221
665 2 20.4029 6.67422 7.27994 4.01434
220 1 22.9693 4.92731 6.33833 2.30065
231 1 22.3835 7.53162 5.54274 1.98579
666 2 22.7065 7.21114 7.73031 4.49071
736 2 24.869 6.61634 4.43471 3.48547
737 2 25.1296 6.37879 7.31092 3.95774
292 1 27.2719 5.46671 6.20734 2.56793
303 1 27.1417 7.73037 5.14858 0.949249
738 2 27.3302 7.36976 8.75368 4.62567
364 1 31.9497 5.25612 6.26674 1.21595
375 1 31.6876 7.63293 5.49123 0.903981
808 2 29.6009 6.57029 4.64001 3.09218
809 2 29.8538 6.48566 7.17706 3.38343
810 2 31.7899 7.40323 8.26052 2.11015
16 1 11.0863 9.06368 6.0241 1.90178
27 1 11.2491 11.6261 5.44879 2.19564
460 2 8.80649 9.97995 4.20307 2.94293
462 2 11.2624 11.7988 8.17736 2.58949
28 1 13.4539 13.3663 5.91011 2.6676
88 1 15.6688 8.91928 6.36973 1.04916
99 1 15.9804 11.804 5.33058 1.91323
532 2 13.5495 10.27 4.47051 3.15959
533 2 13.5881 10.6051 7.03666 3.56709
534 2 15.8146 11.4105 8.13259 2.22041
100 1 18.3366 13.169 6.08943 2.74504
160 1 19.8612 8.99439 6.19224 0.958501
171 1 20.3074 11.344 5.22527 1.04895
604 2 18.1465 10.0076 4.50586 2.89092
605 2 17.8375 10.6932 6.79841 4.42876
606 2 20.3117 11.7031 8.01439 1.37882
172 1 22.6913 12.9414 6.4461 2.12455
232 1 24.746 8.81384 6.53725 2.30509
243 1 24.9344 11.3677 5.59195 1.83667
676 2 22.8194 10.5148 4.43238 1.60986
677 2 22.1275 10.2791 6.6621 2.35249
678 2 24.3597 11.4352 8.03843 3.78805
244 1 27.1609 12.539 6.49331 1.90754
748 2 27.4888 10.1568 4.62807 3.3356
749 2 27.0124 9.6397 7.59173 2.02412
304 1 29.4047 8.91458 6.41871 2.05792
315 1 29.5212 11.6326 5.5604 1.88728
316 1 31.5887 13.0458 6.35411 1.62697
750 2 29.422 11.7581 8.2805 1.57708
820 2 31.5904 10.2322 4.52781 2.52692
821 2 31.7184 10.1969 6.9145 1.7117
376 1 34.0551 9.20294 5.96911 2.07402
387 1 34.1136 11.5549 5.21954 2.19016
388 1 36.6035 13.0554 6.49472 2.16295
461 2 36.093 10.0281 7.48303 2.07039
822 2 33.5471 11.7805 7.90628 2.07563
472 2 10.9641 14.14 4.10427 3.34311
39 1 12.9551 16.2018 5.39454 1.19099
40 1 15.4301 16.8812 6.42475 2.03538
474 2 13.5051 15.6279 8.17259 2.52952
544 2 15.5786 14.9426 4.79829 2.24735
545 2 15.7364 14.2522 7.37923 1.50398
111 1 17.81 15.8677 5.27478 1.04759
112 1 19.9533 16.8748 6.18475 2.21255
546 2 17.5751 15.8551 8.15264 3.74913
616 2 20.0368 14.9065 4.36744 3.718
617 2 20.0266 13.8915 7.67002 2.87631
183 1 22.2037 15.4765 5.30596 2.37996
184 1 24.9646 16.7079 6.46358 1.98507
618 2 22.1652 15.6513 8.24781 2.02552
688 2 24.9365 13.8425 4.36143 1.96697
689 2 24.7905 14.0682 7.36729 3.58508
255 1 27.4671 15.7523 5.46273 3.03953
690 2 26.5431 15.4577 8.39616 2.1911
256 1 29.7463 17.3227 6.42527 3.00988
327 1 31.9242 15.6209 5.457 1.541
760 2 29.2038 14.2075 4.55826 1.79205
761 2 28.8017 14.5192 7.30795 2.10601
762 2 31.1899 15.5977 8.14745 4.1784
328 1 34.2684 16.9075 6.07828 0.841716
399 1 36.7213 15.687 5.61256 2.06425
832 2 34.1079 14.0562 4.57834 2.91634
833 2 33.8998 14.2599 7.24501 1.47539
834 2 36.3424 15.9048 8.34032 3.30257
400 1 38.7121 17.3905 6.46803 0.994079
473 2 38.7199 14.7458 7.05603 2.10036
51 1 16.0293 19.5536 5.49032 1.87961
484 2 13.4692 18.5808 4.59426 2.96096
486 2 15.707 19.4419 8.16595 3.5316
496 2 15.9274 22.055 4.44951 3.54848
52 1 18.1892 21.2829 6.5177 1.64689
123 1 20.4739 19.7514 5.86428 2.06448
556 2 17.9604 18.3676 4.12651 4.01712
557 2 17.9346 18.0435 7.36723 1.70959
558 2 20.1441 19.9309 8.60171 2.15093
568 2 20.0845 22.0675 4.29454 1.80325
569 2 20.8869 22.2717 7.42195 4.85091
124 1 22.8622 21.092 6.32553 2.8089
195 1 24.8785 19.2726 5.66162 2.84395
628 2 22.3003 18.6103 4.12074 3.04421
629 2 22.0195 17.9909 7.85276 2.98653
630 2 25.3092 19.0606 8.28633 3.26394
640 2 24.8572 21.9434 4.90163 2.02893
641 2 24.7125 22.5528 7.28132 3.20566
196 1 27.594 20.9442 6.06981 2.60545
700 2 26.8972 17.7825 4.35295 2.29211
701 2 27.2333 18.5772 6.52562 2.72557
267 1 29.6435 19.4602 5.31742 0.753536
268 1 32.1848 21.1936 6.08636 2.03619
702 2 29.612 20.3254 7.99111 2.32677
712 2 29.9122 21.7851 4.47251 3.61848
713 2 29.6659 22.2338 6.9645 4.25645
772 2 32.3831 18.1331 4.57143 1.99234
773 2 32.0292 18.9588 6.92871 2.16502
339 1 34.3594 19.5276 5.42382 0.702268
340 1 36.5567 21.1415 6.10362 0.917016
774 2 34.822 19.5621 8.44823 2.53734
784 2 34.4911 22.2821 4.36946 3.50286
785 2 34.0267 22.5852 7.25646 3.56588
844 2 36.4583 18.7002 4.08039 3.27076
845 2 36.5372 18.3641 7.01534 3.28226
411 1 38.6585 19.8971 5.33548 1.67274
412 1 41.1859 21.1371 6.52156 1.36204
485 2 40.9671 18.0726 7.38525 3.45357
846 2 38.7135 20.4437 8.11796 5.49102
856 2 38.8035 22.379 4.20384 3.4438
857 2 38.6359 22.2838 7.24447 3.26681
497 2 16.0799 22.2908 7.29223 3.39668
63 1 17.9476 23.9179 5.20812 0.805225
64 1 20.4751 24.8763 6.53836 1.64874
498 2 18.0421 23.6416 8.44116 3.14007
135 1 22.7399 23.7822 5.85023 2.19277
136 1 25.2325 24.9634 6.60412 2.14955
570 2 22.2095 23.7052 8.54675 4.00366
207 1 27.17 23.4088 5.25146 2.02147
642 2 27.1697 23.5184 8.40185 2.75677
208 1 29.4652 24.7245 6.37777 2.71526
279 1 32.0803 23.6671 5.37872 1.03512
714 2 31.2848 23.7769 7.98031 1.94985
280 1 34.3731 24.8016 5.97738 1.21206
351 1 36.6348 23.8869 5.36209 1.79291
786 2 36.4159 23.5088 8.11714 2.53082
352 1 38.9152 25.506 6.43675 2.96347
423 1 41.035 23.6779 5.47137 2.00684
858 2 41.0821 23.8953 8.2077 3.53155
424 1 43.3142 24.7589 6.2072 2.34907
439 2 33.6309 3.88164 11.0156 2.42652
511 2 24.8052 27.2403 11.2661 1.97512
583 2 15.8719 3.98937 10.9908 3.19786
655 2 20.4058 3.69074 10.8282 2.58259
727 2 24.9178 3.6508 10.7481 2.95058
799 2 43.5122 27.15 10.8121 3.78517
5 1 9.31749 5.42337 8.91303 3.39984
6 1 11.2133 6.50574 9.84827 0.821758
7 1 10.9624 6.37942 13.0679 2.30814
440 2 8.27992 4.58284 11.2541 3.08493
451 2 8.87394 7.7039 10.8789 1.99873
77 1 13.5498 5.2708 9.10976 0.88774
78 1 15.8817 6.28766 10.3997 2.54866
79 1 15.5969 6.5281 13.0821 2.10994
512 2 13.4596 5.04713 11.5144 1.92449
523 2 13.3607 7.87894 10.5126 3.82783
149 1 18.0646 4.9601 9.41807 0.982736
150 1 20.4984 5.90639 9.93068 0.848356
151 1 20.6179 6.47675 12.5852 0.88001
584 2 18.2075 5.39154 12.6463 2.4383
595 2 18.391 7.84226 10.8899 1.98505
221 1 22.828 4.90211 9.14689 0.675818
222 1 25.0351 6.51804 9.95138 0.967191
223 1 25.1274 6.47448 12.6937 0.722673
656 2 23.0196 4.71845 11.7885 3.34053
667 2 23.0178 7.2705 10.4198 5.66481
293 1 27.4633 5.00094 8.90567 1.04147
728 2 27.1574 5.17299 11.6016 3.31744
739 2 27.3295 7.15818 11.0938 4.49546
294 1 29.402 5.96601 10.2783 0.809853
295 1 29.687 6.24282 12.881 0.796469
365 1 31.7427 4.96208 8.86361 2.10154
800 2 31.8293 5.62918 11.7972 2.22991
811 2 31.2746 7.65553 11.2585 2.21074
366 1 34.033 6.53681 10.2084 2.68311
367 1 34.2355 5.87524 13.0599 3.06032
17 1 11.1979 8.99884 9.04656 1.96212
452 2 11.2662 9.01604 12.0221 1.98488
463 2 38.5641 11.9375 10.6357 2.46242
18 1 13.4482 10.8098 9.42514 2.96886
19 1 13.7391 10.3206 12.4304 2.75948
29 1 13.9539 13.1731 9.01823 1.04409
89 1 15.7279 8.94736 9.02612 1.7621
464 2 13.0618 12.9502 11.8119 3.08651
524 2 16.1256 9.19077 11.9502 1.9315
535 2 15.3788 12.1548 11.1276 4.20459
90 1 17.8725 10.3715 9.86413 2.08309
91 1 18.4988 10.3324 12.6967 2.3308
101 1 17.9731 13.1102 9.12701 1.77228
161 1 20.5235 8.74021 8.90044 1.88166
536 2 18.0439 13.1072 12.5945 3.71432
596 2 21.2845 8.40174 11.259 5.54022
607 2 20.0441 11.0815 10.5881 4.62962
162 1 22.5328 10.1771 9.89089 0.65765
163 1 22.5524 10.6252 12.7652 2.70722
173 1 22.6708 13.0761 9.51049 2.48752
233 1 24.6041 8.80747 9.45659 1.03965
608 2 21.9605 12.9718 12.1472 4.31125
668 2 24.6373 9.19108 12.1724 3.89187
679 2 24.5296 11.5468 10.8728 3.65184
234 1 27.1424 10.1309 10.581 2.27684
235 1 27.0603 10.3049 13.197 2.07114
245 1 26.8329 12.5769 9.21783 1.85556
680 2 26.8945 13.3422 11.9009 1.60067
305 1 29.3697 8.62456 9.54879 2.67524
306 1 31.5285 10.5614 10.2037 1.80748
307 1 31.8902 10.558 13.0018 2.20497
317 1 31.4768 13.1955 9.30072 2.24499
740 2 29.5673 9.50806 12.4923 1.94964
751 2 29.1594 11.778 10.9792 1.74944
752 2 32.2955 13.0071 11.9205 1.72933
377 1 33.8931 9.00207 9.05807 1.71439
378 1 36.0618 10.4378 10.1282 2.88859
379 1 36.3952 10.3088 12.7462 1.45812
389 1 36.5147 12.8197 9.13252 2.09663
812 2 33.6233 8.82374 12.1888 1.86949
823 2 34.2184 11.8247 11.1831 2.0839
824 2 36.5809 13.5178 12.0725 3.19781
30 1 15.9977 14.4787 10.457 0.967792
31 1 15.6381 14.3812 13.0614 2.04743
41 1 15.4428 16.8402 9.38543 0.890357
476 2 15.6997 16.5723 11.6909 5.39749
102 1 20.4143 14.3041 10.3116 2.45747
103 1 20.2099 14.5158 13.3144 1.61798
113 1 20.0051 17.0246 9.24974 1.63082
547 2 18.202 15.3411 11.4888 3.53538
548 2 20.021 17.5317 12.726 2.60043
174 1 24.8077 14.5085 9.97616 2.37812
175 1 24.6514 14.3555 12.9784 1.83687
185 1 24.5816 16.978 9.05062 3.38593
619 2 22.6474 15.3297 11.6321 2.07357
620 2 24.2293 17.7762 11.4809 3.29597
691 2 26.8845 16.0416 11.285 3.27076
246 1 29.1454 14.4457 9.82663 2.5757
247 1 29.9144 14.7437 12.7324 3.44588
257 1 29.1877 16.8159 9.04588 2.58068
692 2 29.5171 17.2845 11.8758 3.2793
763 2 31.6469 15.7016 11.0988 4.43366
318 1 34.2386 14.4154 10.0538 1.64274
319 1 34.2587 14.6832 12.9514 1.94479
329 1 34.0665 16.8887 8.65156 2.54762
764 2 34.4437 16.8648 11.3207 4.25468
835 2 36.7821 15.8396 10.9323 1.76872
390 1 39.0942 14.2024 9.98259 3.02008
391 1 38.8392 14.589 12.8665 0.901768
401 1 38.7552 17.2125 9.14859 1.6721
475 2 13.3893 15.3765 10.9813 3.05605
836 2 38.7897 17.6022 12.2291 4.80339
42 1 17.7324 17.8368 10.3601 2.17125
43 1 17.5028 18.1281 13.1844 2.41506
53 1 17.6925 21.1527 9.24173 2.5556
54 1 20.4962 21.9826 10.2717 0.81002
55 1 20.0846 22.2544 12.7693 2.55536
488 2 17.5015 21.105 12.3706 2.36953
559 2 20.0203 19.6085 10.9385 2.1859
114 1 22.3076 18.5155 10.1783 2.50084
115 1 22.5854 18.659 13.1569 2.205
125 1 22.6668 21.2561 9.17799 2.22343
126 1 25.1514 22.158 9.87755 0.949886
127 1 25.1694 22.1394 12.8794 2.32691
560 2 23.1004 21.2328 11.8786 1.84136
631 2 25.2815 19.7626 11.5439 2.09688
186 1 27.2622 18.2827 10.084 1.53684
187 1 27.2432 18.1387 12.7349 2.02682
197 1 27.1875 21.0622 9.07728 1.74088
632 2 27.5425 21.1264 11.8543 2.77086
198 1 29.4668 22.1351 10.0836 0.863894
199 1 29.5866 22.2605 12.6297 0.894658
258 1 31.8325 17.9187 10.0924 3.25224
259 1 31.944 18.3958 13.0802 2.35838
269 1 32.0574 21.1601 9.17201 2.58369
703 2 29.6478 19.9134 10.8232 2.00437
704 2 31.4056 20.926 12.2367 3.68186
270 1 34.4084 22.4834 9.97535 2.05444
271 1 33.9894 22.7244 12.5903 1.78548
330 1 36.4563 18.3561 10.1292 1.99528
331 1 36.0144 18.4172 12.9941 2.22153
341 1 36.6235 21.1139 9.24379 0.910511
775 2 33.7578 19.7866 10.7563 1.90077
776 2 35.7219 20.7259 11.7093 4.36866
342 1 38.6678 22.4346 10.0149 0.708986
343 1 38.4254 22.3325 12.7166 1.99618
402 1 40.9404 18.2153 10.24 1.9737
403 1 41.0768 18.4564 13.2072 2.686
413 1 41.2727 20.7221 9.10113 2.0514
847 2 38.5146 19.8436 10.7735 1.51946
848 2 41.2226 21.0545 11.6498 4.72943
414 1 43.2005 22.2841 10.037 0.90326
415 1 43.3388 22.6582 12.8714 3.46834
487 2 15.9067 19.5549 10.5565 4.40969
65 1 20.1857 24.7723 9.41824 0.954419
500 2 20.6894 24.729 12.7726 2.87889
66 1 22.6046 26.1206 10.0751 2.82511
67 1 22.8383 26.1747 12.9085 2.06387
137 1 25.0626 25.01 9.48978 0.869449
571 2 23.1104 23.8412 10.9642 3.26244
572 2 25.0573 24.7422 12.2725 4.14249
138 1 27.4768 26.5721 10.0831 0.827794
139 1 27.0138 26.3478 12.8134 0.910302
643 2 27.1965 24.1273 11.2136 3.51047
209 1 29.3766 25.1368 9.39535 1.78391
210 1 31.6059 26.2665 9.79958 2.43289
211 1 31.5448 26.5712 12.8507 2.14242
644 2 29.4553 24.9447 12.2259 2.46274
715 2 31.4159 23.7223 10.7037 3.83245
281 1 33.8825 24.9619 8.48623 2.51548
282 1 36.4338 26.2954 9.67019 1.89342
283 1 36.1549 26.2322 12.6727 1.66703
716 2 33.8724 25.4636 11.7025 1.80052
787 2 36.4606 23.5496 11.0574 3.33247
353 1 38.7795 24.8524 8.94951 0.726128
354 1 40.6583 26.5155 10.099 2.39285
355 1 40.7485 26.2363 12.6954 1.9301
788 2 37.9484 24.9551 11.7583 5.4317
859 2 41.0475 23.905 11.1573 3.52503
425 1 43.1307 24.8493 9.45732 2.44497
426 1 45.5954 25.9458 9.97351 2.06626
427 1 45.6141 26.2734 12.8381 2.17562
499 2 18.3866 23.3939 11.1028 3.31223
860 2 43.5812 24.8676 12.0446 3.60821
441 2 49.5031 28.3463 15.0563 6.92306
442 2 11.1196 6.29532 15.5183 1.97294
8 1 13.1749 7.93345 13.425 2.73036
9 1 13.6053 7.63942 16.394 1.86307
513 2 13.3355 5.35705 14.6432 3.4219
514 2 15.6323 5.96801 16.297 4.72325
80 1 18.3382 7.91011 13.8776 2.19185
81 1 18.0817 7.50781 16.4926 0.717278
585 2 18.1529 5.31544 15.0793 3.36451
586 2 20.7279 6.47235 15.1801 3.57083
152 1 22.7328 7.70254 13.4953 1.75811
153 1 22.345 7.83637 16.7584 2.31275
657 2 36.0503 28.8075 14.5593 2.23709
658 2 24.8227 6.2702 15.3496 1.86744
224 1 27.0466 7.79897 13.765 2.94674
225 1 27.0585 7.82107 16.6627 1.90533
729 2 41.2459 28.44 14.3699 2.48598
296 1 31.299 7.81013 14.0226 1.04676
297 1 31.7266 7.40158 16.4789 2.37771
730 2 29.4758 6.78019 15.9495 2.1081
801 2 31.8236 5.19806 14.7107 3.50878
368 1 36.1288 7.5294 13.6788 2.03141
369 1 36.5629 7.77599 16.4779 2.12679
802 2 34.0278 6.59056 15.6798 2.61655
453 2 38.4599 8.9336 14.5933 3.57192
10 1 15.7165 8.9648 17.3497 1.90217
20 1 15.7445 11.6197 13.6036 2.41803
21 1 15.6582 11.8304 16.7331 1.92485
454 2 13.2097 10.5225 15.3964 2.22512
525 2 15.924 8.48736 14.7798 1.90347
22 1 18.0331 12.7241 17.3487 0.951513
82 1 20.2667 9.09874 17.4549 0.68557
92 1 20.282 11.6396 13.4885 0.972955
93 1 20.2234 11.4072 16.268 2.35743
526 2 18.016 10.4909 15.4819 3.30719
537 2 17.8521 13.2511 15.1529 3.18119
597 2 20.486 9.08912 14.4947 2.99283
94 1 22.6466 13.0081 17.8027 1.56571
154 1 25.0067 9.28182 17.5432 2.0627
164 1 24.7533 11.6902 13.7827 1.77624
165 1 24.9804 11.8058 16.954 2.69224
598 2 22.6366 10.2202 15.2107 2.10907
609 2 22.432 12.5172 14.8146 3.0259
669 2 25.0836 8.57579 14.813 4.2849
166 1 27.4252 13.1234 17.8082 2.48628
670 2 26.9361 10.5812 15.655 3.38329
681 2 27.2733 13.1544 14.5019 1.93382
226 1 29.447 9.51344 17.9834 2.74824
236 1 29.6383 11.8111 13.9322 1.88339
237 1 29.5039 11.8496 16.7458 2.71125
238 1 31.795 12.5937 17.7344 3.02112
741 2 29.5737 9.52271 15.5256 2.34116
742 2 31.8246 10.2365 15.7129 2.54389
753 2 32.0998 12.7719 14.6834 1.53494
298 1 34.346 8.96931 17.1788 1.86151
308 1 34.4539 11.8093 13.7623 0.857347
309 1 34.2518 11.7002 16.2954 0.853428
310 1 36.2794 13.291 17.5699 2.4089
813 2 34.4791 9.00092 14.7411 2.16479
814 2 36.4141 10.6999 15.5295 4.30972
825 2 36.6062 13.0894 14.356 2.16679
370 1 38.6422 9.12229 17.3342 0.781218
380 1 38.8892 11.6756 13.6903 1.64029
381 1 38.9082 11.8065 16.4576 2.2081
382 1 41.2008 13.3444 18.0077 2.93451
465 2 41.0934 13.5667 14.9753 2.06391
466 2 15.6264 14.7021 16.4335 4.25851
32 1 17.9548 15.6533 14.1839 0.883512
33 1 18.0127 15.4168 17.1064 1.90251
34 1 20.5175 16.5596 17.8002 2.11193
538 2 20.7364 13.8326 15.9069 4.25156
549 2 20.5243 17.1153 15.0756 3.21791
104 1 22.5781 15.6441 14.4285 2.23526
105 1 22.6717 15.4975 17.0412 0.94454
106 1 25.1636 16.4087 17.4767 2.47591
610 2 24.7786 14.2973 15.6513 2.88378
621 2 25.309 16.5401 14.812 3.46552
176 1 27.5177 15.6106 13.666 2.24305
177 1 27.3504 15.4566 16.3986 2.13582
178 1 29.3403 17.1574 17.5585 2.06655
248 1 31.9259 16.0022 14.0738 1.16559
249 1 31.7736 15.1628 16.6808 2.9333
682 2 29.8213 14.3619 15.4566 3.06925
693 2 29.4687 17.1369 15.0757 3.36926
250 1 33.8124 16.9665 17.4267 0.983465
320 1 36.4726 15.8575 13.6742 0.915271
321 1 36.1458 16.0664 16.6154 1.10865
754 2 34.5072 14.6221 15.6428 3.18427
765 2 34.4604 17.0063 14.8998 3.85392
322 1 38.442 17.457 17.5835 2.58246
392 1 40.7071 15.9256 13.8109 0.828315
393 1 40.8469 15.6539 16.6787 2.01733
826 2 38.1538 14.2767 15.8227 2.1128
837 2 38.7224 16.5212 15.4014 5.79583
394 1 43.4326 17.086 17.5428 0.964369
477 2 43.154 17.0164 14.9361 3.40189
44 1 20.2094 19.6011 14.3956 2.07464
45 1 20.1416 19.409 16.8994 2.34222
478 2 18.0631 17.6616 15.4993 4.53287
490 2 20.3545 22.3714 15.5967 1.73044
46 1 22.679 20.5385 17.6181 2.13655
116 1 24.9076 19.2629 14.1715 0.751889
117 1 24.7044 19.4847 16.5935 0.714185
550 2 22.9152 17.8713 15.707 2.73562
561 2 22.7343 20.8359 15.0747 2.09682
562 2 25.3658 22.0326 16.2186 2.30328
118 1 27.5159 20.74 17.5914 1.93326
622 2 26.997 18.3076 16.0275 2.95232
633 2 27.0728 20.8741 14.9342 3.08567
188 1 29.2472 19.7641 13.6401 2.06243
189 1 29.4683 19.7299 16.2004 0.986629
190 1 31.6557 20.7004 17.5556 2.7761
634 2 29.4924 22.4147 15.6914 3.25011
694 2 31.6511 17.7845 15.4567 4.40162
705 2 31.5785 21.2718 14.6601 1.60999
260 1 33.9175 20.0189 13.3767 2.17297
261 1 33.8161 19.5979 16.4867 2.50697
262 1 36.671 21.1588 17.3633 0.898869
706 2 34.5692 22.2631 15.2007 2.07487
766 2 36.5016 18.6722 15.8446 3.37724
777 2 36.4354 21.2477 14.3296 2.03771
332 1 38.554 19.5771 13.7447 3.10971
333 1 38.6943 19.8113 16.4432 0.876499
334 1 40.8809 20.9624 17.7207 2.03397
778 2 38.5172 23.1421 15.4605 4.64747
838 2 41.2543 18.1864 15.8414 3.29701
849 2 40.5054 20.8737 15.1807 2.1754
404 1 43.0193 19.7327 13.8447 1.9773
405 1 43.5843 19.521 16.781 1.85677
406 1 45.6277 21.0831 17.8457 2.06162
489 2 45.8576 21.0007 15.3586 4.34857
850 2 43.0326 21.7152 15.248 2.24042
56 1 22.8371 23.5966 13.7639 1.51623
57 1 22.7532 23.1707 16.6622 1.44627
58 1 25.105 24.3912 17.8252 2.59944
502 2 22.8234 25.9545 15.5506 1.84515
573 2 25.1032 25.0251 15.2294 1.8482
128 1 27.3016 23.6565 13.7376 1.53464
129 1 27.4107 23.3076 16.7674 2.19632
574 2 27.7496 26.0256 15.3893 1.75218
130 1 29.9015 24.5711 17.7878 2.24459
200 1 31.7728 23.8926 13.5027 1.74146
201 1 31.807 23.4411 16.4367 1.67112
645 2 29.8191 25.1158 15.172 1.83384
646 2 32.2065 26.5572 15.8213 1.93077
202 1 33.8528 24.9222 17.5149 0.844997
272 1 36.396 23.9314 13.8046 2.17478
273 1 36.3263 23.5225 16.7831 0.949833
717 2 33.984 25.1902 14.3747 1.61504
718 2 36.7105 25.7536 15.9561 5.03191
274 1 38.525 24.8694 17.1717 1.11335
344 1 40.8278 23.1915 13.6531 2.19885
345 1 41.1516 23.7129 16.7629 1.40851
789 2 39.2044 25.1379 14.6709 5.3174
790 2 40.8559 25.9776 15.0316 5.12531
346 1 43.0094 25.282 17.4326 1.12764
416 1 45.6839 23.5895 13.8116 0.917835
417 1 45.3451 23.6528 16.5476 1.99591
861 2 43.2677 24.342 14.7519 4.07799
862 2 45.1368 26.1004 15.4433 2.06097
418 1 47.9185 25.018 17.6393 1.71867
501 2 20.6376 24.9349 15.1046 4.35371
68 1 25.2361 27.5941 14.046 1.78809
69 1 25.197 27.2493 16.8231 2.12754
70 1 27.555 28.7803 17.6101 1.5626
140 1 29.3412 27.6132 13.867 1.64672
141 1 29.7762 27.4359 16.6484 2.00138
142 1 32.0029 28.9 17.3588 2.25698
212 1 34.0469 27.9136 13.6052 0.983645
213 1 34.3914 27.283 16.4602 2.06295
214 1 36.5195 28.9746 17.4145 2.19359
284 1 38.5615 27.803 13.7981 1.84299
285 1 38.595 27.7127 16.4852 2.34654
286 1 41.2704 29.3256 17.638 2.42305
356 1 43.3047 27.5143 13.3839 2.29904
357 1 42.7668 27.3355 16.2889 0.959146
358 1 45.447 28.4693 17.3123 2.87752
428 1 47.9517 27.3831 13.8842 0.749067
429 1 48.0189 27.4969 16.7846 0.847073
430 1 50.3533 28.9171 17.2485 2.06709
443 2 25.1349 29.8874 18.8773 1.96459
444 2 13.4581 7.41641 19.3766 2.05441
515 2 29.9301 30.2776 18.741 1.70548
516 2 18.1787 8.34926 19.5405 2.34872
587 2 20.4495 6.29041 18.1202 3.24572
588 2 22.8535 7.8383 19.2407 3.87316
659 2 38.7735 30.3494 18.8707 2.05521
660 2 27.6057 7.86582 19.6052 1.52411
721 2 18.0001 -0.0605533 0.120656 1.57448
731 2 43.3914 30.1596 18.6089 1.98884
732 2 32.2803 7.58465 19.5187 2.0743
793 2 36.6505 8.25665 21.8435 2.28697
803 2 47.4318 29.9985 18.3843 1.74613
804 2 36.658 7.57191 19.0811 1.66745
11 1 15.4407 9.21373 20.1813 2.10633
455 2 40.7044 10.3561 18.0669 3.43989
456 2 15.3429 11.7107 19.614 3.60277
12 1 17.859 10.4074 21.4272 1.99773
23 1 18.1031 12.9242 20.3697 0.777418
83 1 20.595 9.02076 20.2915 2.14399
527 2 17.6985 10.424 18.528 2.16241
528 2 20.28 11.2511 19.0785 3.70821
84 1 22.5508 10.1393 21.4164 0.714071
95 1 22.5185 12.8642 20.5289 0.778017
155 1 25.069 8.81032 20.4081 2.08173
599 2 22.3457 10.2447 18.2486 3.20288
600 2 24.4869 11.4798 19.2025 2.35174
156 1 27.1533 10.0988 21.8337 2.2916
167 1 27.3004 12.9707 20.7393 2.89724
671 2 27.0482 10.5813 19.2498 2.04128
227 1 29.8204 9.28815 20.5975 0.937144
228 1 32.099 10.7144 21.35 0.93199
239 1 32.0326 13.3429 20.2588 2.28304
672 2 30.0226 11.7781 20.0591 4.45926
743 2 31.7316 10.2549 18.8231 3.44887
299 1 34.1561 9.32877 20.2655 1.58081
300 1 36.568 10.469 20.9424 2.28434
311 1 36.4769 13.1937 20.3966 0.83192
733 2 20.7435 3.73055 -0.0316197 4.3142
744 2 34.4045 11.6427 18.8248 4.16835
815 2 36.638 10.6523 17.9579 2.15961
371 1 38.9067 8.93396 20.0594 2.09816
372 1 40.8436 10.4134 21.1814 0.878654
383 1 41.1399 13.2782 20.7786 2.05379
805 2 38.7893 11.9781 22.2287 2.61083
816 2 38.5862 11.3733 19.1881 1.70858
24 1 20.4323 14.0554 21.5066 1.73899
35 1 20.4302 17.2269 20.3606 2.30816
468 2 18.0239 15.7277 19.6634 2.84985
539 2 19.8042 13.6957 18.5478 2.36675
96 1 24.4265 14.1237 21.7272 2.80185
107 1 24.8972 16.8653 20.3929 2.03718
540 2 22.0607 15.4053 19.8211 3.2801
611 2 24.5181 14.6149 19.1778 1.79225
612 2 27.1912 15.4023 19.0443 2.20316
168 1 29.6003 14.3957 21.521 1.03968
179 1 29.2774 16.6306 20.2573 0.712386
683 2 29.6905 14.4504 18.1552 3.53869
684 2 31.7312 16.0367 19.2794 3.1874
240 1 34.2496 14.3856 20.9031 0.835196
251 1 34.3879 17.1856 20.3082 0.837291
745 2 36.3161 15.7263 22.2133 3.30855
755 2 34.2026 14.3743 18.3332 2.72234
756 2 36.3726 15.8926 19.3422 2.77165
312 1 38.635 14.5922 21.4043 2.34917
323 1 38.9153 17.1356 20.3057 1.77609
817 2 27.3558 8.14755 -0.0580032 1.60617
827 2 38.3943 14.4194 18.1668 1.74988
828 2 41.3803 15.968 19.7519 1.93757
384 1 43.6388 14.3767 21.3565 1.93156
395 1 43.2376 17.2948 20.437 1.81187
467 2 42.929 14.4199 19.0948 4.64968
480 2 21.0428 19.565 19.2979 4.70792
36 1 22.623 18.2464 21.2532 0.771586
47 1 22.5845 21.1194 20.5988 1.03913
48 1 25.0507 21.7508 21.4401 0.74735
551 2 23.1072 17.9779 18.5853 3.78058
552 2 24.9862 19.4285 19.6626 1.70685
563 2 24.2772 22.189 19.1543 3.01613
108 1 27.306 18.0546 21.4439 0.801552
119 1 27.3814 20.7356 20.5652 2.51661
623 2 27.1584 18.4326 18.7693 1.85013
120 1 29.6827 22.3099 21.5068 2.16479
180 1 31.8494 18.1953 20.8874 1.14734
191 1 31.8208 20.753 20.5791 0.833508
624 2 29.4352 20.0219 19.6174 4.09867
635 2 30.5487 22.2651 19.0405 3.25513
695 2 32.054 18.4709 17.9733 5.1014
192 1 34.3595 22.1926 21.183 0.985009
252 1 36.7309 18.427 21.0459 0.918777
263 1 36.556 20.9489 20.3202 0.79063
696 2 34.0713 19.848 19.2644 1.75736
707 2 33.9583 22.2383 18.0996 1.88482
767 2 36.4572 18.4491 18.3931 2.6418
264 1 38.465 22.2905 21.3532 0.693413
324 1 41.0402 18.7429 21.3634 0.700249
335 1 41.055 21.0982 20.3648 0.804913
757 2 24.7497 11.7539 0.0452826 4.9515
768 2 38.6989 19.5795 19.4009 2.77969
779 2 38.6563 21.746 18.2801 4.19261
839 2 41.0571 18.547 18.7278 2.69192
336 1 43.2127 22.4194 21.2704 1.8677
396 1 45.6221 18.303 21.3009 1.38962
407 1 45.7215 21.0548 20.51 1.91985
479 2 45.3217 18.5051 18.4378 4.5621
829 2 29.4608 11.8099 -0.0356902 2.75597
840 2 43.1857 19.7987 19.451 2.72969
851 2 42.9832 22.6921 18.0107 4.84791
408 1 47.8697 22.2043 21.4443 1.79204
491 2 20.4732 21.9882 18.7484 3.21197
59 1 25.0408 24.2683 20.8238 1.34622
492 2 22.7853 23.6759 19.4057 3.78892
503 2 50.0239 26.4788 18.6717 4.34536
60 1 26.8777 25.8774 21.117 2.92055
564 2 27.9501 23.3098 19.8205 2.67863
575 2 27.6633 26.1363 18.4217 1.56447
131 1 29.6691 25.0019 20.4956 0.95828
132 1 31.8519 26.444 21.317 1.50756
636 2 32.5599 23.5884 19.4877 4.02
647 2 31.7879 26.5121 18.7325 1.98937
203 1 34.2184 24.8803 20.4021 2.13641
204 1 36.4905 26.3564 20.9597 2.41648
708 2 35.9987 23.0371 19.2736 4.41446
719 2 36.2594 26.1534 18.337 3.5408
275 1 38.509 24.6832 19.9204 2.61901
276 1 41.0246 26.163 21.4446 1.98782
769 2 40.9529 23.7856 22.0882 2.74207
780 2 40.6368 23.6052 18.967 4.53498
791 2 40.7739 26.2967 17.5784 4.70495
347 1 43.2181 24.9431 20.3815 1.98834
348 1 45.9089 26.6103 21.3464 2.43351
841 2 31.4492 15.8416 -0.170353 2.08666
852 2 45.3724 23.5869 19.485 1.70722
863 2 45.2671 26.1249 18.6697 3.31064
419 1 48.2417 24.8626 20.2331 2.37244
420 1 50.4296 26.0133 21.0412 2.39625
504 2 24.9917 27.3395 19.5538 1.72979
71 1 27.3849 28.8735 20.3802 2.08938
72 1 29.6543 30.0846 21.5348 0.861868
143 1 31.857 29.2805 20.3643 1.68169
576 2 29.5538 27.8198 19.412 1.76126
144 1 34.5637 30.2582 21.141 2.09407
215 1 36.8127 28.7542 20.1185 2.03007
648 2 33.808 27.5761 19.4501 1.89442
216 1 39.0364 30.0603 21.5438 1.00388
287 1 41.2224 28.8865 20.4854 1.74097
720 2 39.4022 27.2108 19.4258 2.20488
288 1 43.7415 30.4209 21.3487 1.98573
359 1 45.3732 28.5864 19.8793 2.95066
781 2 43.4517 27.4893 22.2759 3.79688
792 2 42.4851 27.2518 18.9541 5.25204
360 1 48.0153 30.3999 21.1085 1.89543
431 1 50.1681 28.978 20.1706 1.72664
853 2 34.7661 19.2816 -0.239223 2.34409
864 2 48.0858 27.4283 19.4003 3.59719
432 1 52.4154 30.0392 21.4768 2.25495
ITEM: TIMESTEP
225
ITEM: NUMBER OF ATOMS
864
ITEM: BOX BOUNDS xy xz yz pp pp pp
-3.5528548485724681e-01 5.5013292429903714e+01 1.3860742459089717e+01
-3.3193132463480635e-01 3.1667458797969314e+01 1.3842342126298792e+01
-2.9792404523827354e-01 2.2306525991071329e+01 7.9918799528335072e+00
ITEM: ATOMS id type x y z f_grace_gamma
433 2 13.6116 8.08532 22.0338 2.14599
434 2 1.80198 0.930078 0.925049 2.07274
435 2 16.2745 25.0463 3.33175 1.97744
445 2 29.929 3.83684 0.141489 2.58107
1 1 4.57038 1.77362 1.59082 3.11197
2 1 6.92877 3.68075 2.94222 2.71613
505 2 31.7996 31.4915 22.2727 1.92483
506 2 6.8114 0.742724 0.583787 2.47163
507 2 20.3274 24.541 3.46315 3.88846
517 2 20.0852 11.0228 22.3887 1.97492
73 1 8.7392 2.22794 1.70421 2.23579
74 1 11.0745 3.21935 2.6539 2.67997
577 2 37.1128 31.4608 21.6193 2.11046
578 2 10.7336 0.798556 0.648056 2.0061
579 2 25.396 24.4884 3.19657 4.45124
589 2 24.6519 11.999 22.1558 2.18153
145 1 13.5926 1.97496 2.07011 2.38253
146 1 16.0134 3.50752 2.36686 0.847977
649 2 27.8326 22.911 0.377114 5.50544
650 2 15.5789 0.53835 0.749192 1.81448
651 2 29.692 24.3061 3.47029 3.87756
661 2 15.8181 2.99816 -0.0986081 4.41467
217 1 18.2082 2.75044 1.49861 0.981502
218 1 20.3312 3.82865 2.64462 1.78361
722 2 20.4647 0.899543 0.402032 3.83661
723 2 20.4335 1.18608 3.15661 3.43927
289 1 22.7193 2.39897 1.08775 2.64718
290 1 25.0709 3.79773 2.58544 1.68783
794 2 24.7979 0.925722 0.573654 2.25979
795 2 25.2153 1.22963 3.63507 1.46275
361 1 27.2425 2.21876 1.42002 2.94458
362 1 30.3382 3.80427 2.57158 2.46374
13 1 6.80586 6.42775 1.39669 2.10479
446 2 4.54827 5.17388 0.884356 3.9468
447 2 5.03184 5.03867 3.5458 4.87497
457 2 4.7802 7.67686 -0.196874 2.2181
14 1 9.18799 7.3799 2.44659 0.816594
85 1 11.4438 6.44558 1.63268 1.14436
518 2 8.69295 4.7771 0.848254 3.45578
519 2 9.13819 4.94857 3.50137 3.5391
529 2 8.58642 7.87935 -0.18652 4.77673
86 1 13.4524 7.68492 2.71685 0.829919
157 1 15.7283 6.38548 1.46776 0.701311
590 2 13.4806 4.29605 0.39884 2.7986
591 2 13.456 4.87394 3.01506 2.01289
601 2 27.4814 15.7271 22.3844 2.67591
158 1 17.5665 7.8232 2.16013 0.955008
229 1 19.8206 6.54297 1.48818 3.1166
662 2 18.0598 5.26448 0.215544 4.05623
663 2 17.939 5.07456 2.9587 3.59206
673 2 31.6752 15.9555 21.925 3.63732
230 1 22.4114 7.42436 2.59792 1.73309
301 1 25.149 6.28993 1.51919 1.06656
734 2 22.2247 5.12237 1.08918 1.90058
735 2 22.4665 4.70115 3.9451 2.64122
302 1 27.1529 7.88126 2.44748 2.38465
806 2 27.44 4.87477 1.16045 1.8101
807 2 27.4548 5.32262 3.60381 1.85088
373 1 30.1111 6.31515 1.53372 2.61798
374 1 32.0107 7.31412 2.87309 2.51049
458 2 6.53506 9.71856 0.662751 2.37422
25 1 8.85621 9.922 1.38866 1.05798
26 1 10.826 11.6953 2.85552 2.9409
470 2 8.54066 12.6592 0.577653 3.33118
471 2 36.3947 12.9078 3.50585 2.33123
530 2 11.0537 8.74876 0.414376 4.19087
531 2 11.2407 8.93254 3.03898 3.28706
541 2 10.9571 11.1746 -0.141638 3.44442
97 1 13.2801 10.4616 1.59447 2.63936
98 1 15.8845 11.4827 2.40819 2.01963
542 2 13.5859 12.736 0.981037 4.11998
543 2 13.4907 12.5602 2.98029 4.122
602 2 15.3666 8.98597 0.550035 3.90978
603 2 15.6781 8.39446 4.01744 3.10249
613 2 15.6283 11.5498 -0.21525 3.74037
169 1 18.2604 10.1954 1.32399 0.870631
170 1 20.2607 11.6813 2.34484 1.98883
614 2 18.2641 12.8662 0.605065 3.91348
615 2 17.8413 12.4501 3.67371 2.59311
674 2 20.1342 8.56127 0.483027 4.31287
675 2 20.1663 9.06759 3.00075 1.46128
685 2 34.1737 19.2541 22.3308 1.67536
241 1 22.9592 9.97278 1.43011 2.21993
242 1 24.842 11.6968 2.31262 2.06456
686 2 22.1171 12.5112 0.79718 2.64589
687 2 22.1861 13.409 3.76448 2.48326
746 2 25.6382 9.35923 0.569502 2.19925
747 2 25.169 9.00735 3.73738 2.96372
313 1 27.3702 10.481 1.63986 1.66632
758 2 27.4696 13.3274 0.49786 4.03659
759 2 26.8145 12.8563 3.58927 1.74449
314 1 29.5089 11.8621 2.50893 1.05233
385 1 31.9355 10.6895 1.84627 3.01334
818 2 29.7432 9.3139 0.538839 2.19331
819 2 29.4499 8.5712 3.38096 1.76865
830 2 32.2362 12.9307 0.466297 3.80535
831 2 31.884 12.9762 3.39968 3.84883
386 1 34.3324 11.4376 2.32077 1.07077
459 2 33.9969 9.01681 3.19406 3.59912
469 2 20.4089 19.5259 21.5647 2.29125
37 1 11.0728 13.8349 1.35298 2.47404
482 2 10.7236 16.3025 0.771194 2.37056
38 1 13.2868 15.5359 2.76993 2.33627
109 1 15.7363 13.9782 1.94612 1.12532
553 2 14.0763 15.4723 -0.0463293 2.75731
554 2 16.12 17.334 0.588221 2.18105
555 2 15.39 16.8024 3.404 3.68283
110 1 17.7744 15.4821 2.41366 1.08813
181 1 20.4823 14.3 1.57008 1.29704
625 2 32.0179 23.5843 22.0316 2.06177
626 2 20.1051 16.3618 0.823058 4.44504
627 2 20.3569 17.3536 3.42224 1.84191
182 1 22.4573 15.6884 2.23838 1.00163
253 1 24.6151 14.3029 1.50144 2.38394
697 2 36.2318 23.8748 22.1827 3.56322
698 2 24.4629 17.0432 0.0831229 1.93714
699 2 24.9562 16.8566 3.29504 2.47403
254 1 27.4557 15.6331 2.62221 2.34857
325 1 29.5422 14.265 1.80337 2.23398
326 1 32.3149 15.3947 2.52101 2.0662
770 2 30.0478 16.7929 0.610132 2.0221
771 2 29.8466 16.8719 3.67076 1.86931
397 1 34.6251 14.0671 1.85213 1.03802
398 1 36.5386 15.8385 3.05518 2.57912
481 2 8.62459 15.5082 0.0503375 3.33808
842 2 34.2549 16.7154 1.146 1.75331
843 2 34.3679 16.8681 3.46446 4.67611
483 2 11.3104 16.984 3.70021 1.90389
493 2 11.6377 19.536 -0.127064 2.35484
49 1 13.6313 18.0436 1.41263 2.30853
50 1 15.6811 19.5678 2.48736 2.15738
61 1 15.6284 22.096 1.60652 1.02079
494 2 13.5483 21.5379 0.619677 3.84219
495 2 13.7734 20.4913 4.01263 2.46576
565 2 15.4862 19.372 -0.374675 1.91949
121 1 18.2832 18.1817 1.6186 2.17405
122 1 20.5704 19.8121 2.92479 3.38017
133 1 20.5142 22.3535 1.81348 1.97419
566 2 18.0019 21.0772 0.455494 1.68362
567 2 18.3728 20.9457 3.75698 2.09002
637 2 20.0879 19.6825 -0.0177195 2.25047
193 1 22.0628 18.1228 0.937863 3.75865
194 1 24.5834 19.2398 2.44298 2.28225
205 1 25.2616 22.1617 1.60823 1.293
638 2 22.7359 21.1023 0.00596605 1.77053
639 2 22.8281 21.3039 2.84536 2.49816
709 2 25.3836 19.69 -0.161536 4.35361
265 1 26.8173 17.8371 1.35954 1.08527
710 2 27.3134 20.733 0.765911 2.54659
711 2 26.9015 20.212 3.54115 2.40309
266 1 29.3817 19.2007 2.33989 2.62512
277 1 29.775 21.975 1.63505 2.22666
337 1 31.9567 18.2053 1.55105 2.28317
782 2 32.4182 21.2984 -0.000422261 2.00276
783 2 31.7408 20.7742 3.29568 2.92365
338 1 33.9974 19.8742 2.74288 2.8582
349 1 34.2728 22.5125 1.65172 2.23587
409 1 36.6685 18.7035 1.52939 3.20701
854 2 36.8433 21.7853 0.463161 2.0173
855 2 36.9462 20.9739 2.93698 2.00547
410 1 39.3338 19.9832 2.50668 2.47672
421 1 39.1125 22.4881 1.80572 2.75688
62 1 18.2145 23.349 2.63718 0.937207
134 1 22.7884 23.7698 2.60884 2.14882
206 1 27.3279 23.2487 2.79801 1.25329
278 1 31.9158 23.6366 2.65634 2.25564
350 1 36.7829 23.9493 2.37749 0.937063
422 1 41.3276 23.2549 2.7249 0.908083
3 1 7.01605 4.16835 5.67269 0.992148
436 2 4.76066 2.73566 4.50353 1.64959
437 2 4.79752 2.78039 7.0412 1.91781
438 2 7.07251 3.6482 8.61769 2.31717
75 1 11.3713 3.7304 5.53487 2.20449
508 2 8.85036 2.43851 4.64866 1.89935
509 2 8.68753 2.55264 7.18635 3.75787
510 2 11.5552 3.6788 8.54385 2.14766
147 1 16.315 3.52336 5.25456 2.80561
580 2 13.7076 2.45557 4.54433 4.1681
581 2 27.549 26.0042 7.3138 4.06638
582 2 16.0587 3.64795 7.87385 3.44941
219 1 20.6213 3.37273 5.14193 2.49036
652 2 17.9814 2.56585 3.92976 4.16434
653 2 18.1895 2.01649 6.58636 2.01473
654 2 20.0819 3.74974 7.66068 1.99617
291 1 25.344 4.05441 5.30773 2.65243
724 2 23.2418 2.62688 3.79835 2.35349
725 2 22.5699 2.4314 7.22696 3.32824
726 2 25.3048 3.77101 7.77649 4.48307
796 2 27.8765 1.74662 3.68158 3.30776
797 2 27.7943 2.37249 7.48823 1.68567
363 1 29.6768 3.85931 5.53357 2.61898
798 2 30.022 3.72995 7.98413 2.1748
448 2 7.17318 6.29959 4.21511 3.66248
449 2 34.4466 6.58484 7.70686 2.09973
4 1 9.52425 5.179 6.54057 1.29531
15 1 9.15501 7.17619 5.16471 3.34079
450 2 9.54413 7.51683 7.57556 4.72258
520 2 11.607 6.14287 4.34703 4.10302
521 2 12.0346 6.25957 7.06279 4.05618
76 1 14.1066 4.69649 6.14162 2.81266
87 1 13.4579 7.61496 5.06868 2.26299
522 2 13.6923 8.22761 7.60053 2.58689
592 2 15.6797 6.00934 3.95159 3.52794
593 2 15.8857 6.24091 7.81628 4.58115
148 1 18.1577 5.3255 6.25029 2.41577
159 1 17.7542 7.55817 5.43094 0.721266
594 2 17.8808 7.67438 8.69167 3.73662
664 2 20.0784 6.24286 4.4675 2.03165
665 2 20.0936 6.68116 7.18914 3.72204
220 1 22.892 5.02002 6.51196 1.883
231 1 22.4353 7.42385 5.30766 2.09475
666 2 23.1569 6.96172 8.05287 3.86523
736 2 24.5493 6.44404 4.49008 4.19807
737 2 25.4669 6.52401 7.31717 1.93882
292 1 27.441 5.41139 6.07948 0.986951
303 1 27.0807 7.70436 4.91852 3.16849
738 2 27.6967 7.66412 8.53852 1.67019
364 1 32.2966 5.33478 6.04404 1.99297
375 1 31.7191 7.66655 5.32239 1.14157
808 2 29.6871 6.04845 4.65574 3.65678
809 2 29.6423 6.17314 7.48771 1.77512
810 2 32.0128 7.50365 8.5364 4.36974
16 1 11.2459 9.27365 6.14527 0.90126
27 1 11.1941 11.6782 5.41705 0.913731
460 2 9.06545 9.74577 4.08808 2.08218
462 2 11.5564 12.4772 8.12436 3.55276
28 1 13.4499 13.5544 5.56668 1.14395
88 1 15.8414 8.97261 6.62502 2.32975
99 1 15.8669 12.1861 5.38045 2.77288
532 2 13.7303 10.2548 4.37001 1.85727
533 2 13.6291 10.4794 6.65503 2.08971
534 2 15.4442 11.5491 8.38406 2.10592
100 1 18.4322 13.1761 6.05584 3.38419
160 1 19.7218 9.04436 6.44555 1.09371
171 1 20.3135 11.2326 5.47718 2.22083
604 2 18.2958 10.0109 4.11632 2.17134
605 2 17.8155 10.5845 7.41335 4.36302
606 2 20.6227 11.5788 8.22368 1.71417
172 1 22.669 13.0178 6.46301 2.27598
232 1 24.6231 8.84378 6.35552 0.742955
243 1 24.9831 11.3461 5.3417 1.47363
676 2 23.0101 10.1398 3.96164 2.01352
677 2 22.4108 10.0817 6.93838 3.62667
678 2 24.5202 11.4454 8.28633 4.07653
244 1 27.1848 12.6106 6.70878 2.19779
748 2 27.5629 10.4543 4.6627 2.05777
749 2 27.0125 10.1498 7.44494 1.57856
304 1 29.6023 8.92038 6.18396 2.0492
315 1 29.7559 11.6115 5.43235 2.86269
316 1 31.8734 12.9764 6.51046 1.00804
750 2 29.409 11.1475 8.46681 2.00507
820 2 31.6516 9.9906 4.39136 4.77817
821 2 31.5098 10.1936 7.02857 2.70044
376 1 33.9438 9.04543 5.95358 3.43621
387 1 33.8048 11.6353 4.96134 3.28874
388 1 36.9057 13.0956 6.40773 2.66234
461 2 9.37689 9.95046 7.32579 3.66917
822 2 33.6503 11.7608 8.12696 2.09567
472 2 10.9571 13.9024 3.96288 3.97507
39 1 13.0931 15.9909 5.19894 0.858975
40 1 15.372 16.8937 6.54638 2.33088
474 2 13.1815 15.9108 7.99402 3.31578
544 2 15.2807 14.8751 4.53318 5.70266
545 2 16.3096 13.8169 7.31377 4.25569
111 1 17.7573 15.9561 5.3941 2.05047
112 1 20.0079 17.0657 6.22254 2.35613
546 2 17.7048 15.3806 8.33447 2.52627
616 2 20.0625 14.7775 3.90878 1.95807
617 2 20.2276 14.7826 7.66842 1.88829
183 1 22.4977 15.3977 5.50003 2.87501
184 1 25.2007 16.5124 6.59933 2.956
618 2 22.333 15.4266 7.78142 3.22291
688 2 24.695 13.8711 4.33206 1.77753
689 2 25.081 13.8638 7.25901 4.81529
255 1 27.4954 15.5459 5.58811 2.50524
690 2 27.2816 15.8044 8.55601 3.93688
256 1 30.1094 16.9919 6.59029 3.02472
327 1 32.0591 15.5577 5.36198 1.84345
760 2 29.8606 13.7921 4.25784 2.836
761 2 29.6934 13.9887 6.87934 1.94092
762 2 31.2353 15.4459 8.30874 2.44125
328 1 34.6024 17.0123 5.89201 2.72024
399 1 37.0061 15.7731 5.63671 1.19461
832 2 34.6064 14.2442 4.82268 1.99374
833 2 34.3817 14.5876 7.41734 2.08403
834 2 36.9989 15.7698 8.06384 3.63
400 1 38.8244 17.4654 6.45084 0.853937
473 2 11.4887 14.5284 6.94788 2.494
51 1 16.1184 19.7076 5.52009 1.99862
484 2 13.6426 18.3417 4.85126 3.0937
486 2 15.7547 19.5418 8.11453 2.3663
496 2 15.927 21.8405 4.14114 4.05131
52 1 18.2347 21.2455 6.46051 2.38625
123 1 20.6565 19.8009 5.85199 2.97413
556 2 17.8489 18.1967 4.0538 2.29524
557 2 17.9365 18.3048 7.58874 1.71784
558 2 19.9042 19.3839 8.7745 2.1805
568 2 20.4896 22.1181 4.31678 3.84601
569 2 20.59 21.8646 7.46273 4.24948
124 1 22.9089 21.2218 6.32286 2.56345
195 1 24.8128 19.4138 5.59961 2.79649
628 2 22.5228 18.455 4.55328 1.85819
629 2 21.8784 18.1802 7.2237 5.94771
630 2 25.6978 19.0274 7.91205 3.15945
640 2 24.6638 22.2902 4.64567 1.7174
641 2 24.7556 22.636 7.38168 4.2094
196 1 27.7357 20.8751 6.08258 2.76927
700 2 27.0471 18.0965 4.27737 2.01015
701 2 27.8624 18.0399 6.80691 2.3848
267 1 30.0693 19.5554 5.25625 1.80638
268 1 32.4707 21.1305 6.04558 2.24388
702 2 29.8878 19.7702 8.27571 1.82791
712 2 30.1223 22.2801 4.5864 2.0179
713 2 29.3989 22.8733 7.0727 2.28651
772 2 32.2716 18.1852 4.06561 3.96879
773 2 32.1893 18.2379 6.88892 1.90119
339 1 34.7397 19.7629 5.3934 1.00352
340 1 36.6934 21.2443 6.21894 1.61336
774 2 34.612 19.7946 8.23307 2.0683
784 2 34.7348 21.8915 4.2517 5.13977
785 2 34.1149 22.8937 7.07084 3.67076
844 2 36.9231 18.5423 4.49515 2.9751
845 2 36.6197 18.1599 7.27414 3.66713
411 1 38.8861 19.8784 5.37872 1.73053
412 1 41.1834 20.9792 6.74969 2.09815
485 2 13.6318 18.4587 7.67354 3.96826
846 2 39.0315 20.097 8.00475 3.04114
856 2 38.8726 22.6536 4.90204 4.05865
857 2 38.6639 22.9652 7.11816 1.87653
497 2 15.6799 22.5493 7.21978 2.87025
63 1 18.2444 23.9954 5.1029 0.972532
64 1 20.1949 24.871 6.32006 2.54905
498 2 17.8597 23.6882 8.47675 4.00055
135 1 22.8572 24.0367 5.82766 2.63883
136 1 25.2519 25.0281 6.54543 2.19889
570 2 22.4776 24.0878 8.16849 4.42276
207 1 27.2905 23.8829 5.32357 0.925515
642 2 27.5533 23.6093 8.52629 2.08272
208 1 29.4098 25.147 6.34224 2.9427
279 1 32.2012 23.9084 5.32777 2.04429
714 2 31.664 23.7484 7.88481 2.11599
280 1 34.6429 25.0682 5.6303 1.16179
351 1 36.9256 24.0713 5.13611 2.24797
786 2 36.0226 23.9032 7.63374 5.07632
352 1 39.0454 25.5617 6.49638 2.28592
423 1 41.3654 23.9061 5.49929 2.04913
858 2 41.0887 23.9669 8.34144 3.18848
424 1 43.7627 24.7771 6.40617 2.30463
439 2 33.4018 3.61203 11.3164 4.9802
511 2 24.8689 27.4253 11.4795 1.93114
583 2 15.6938 3.58239 11.3463 4.48379
655 2 34.4565 27.4993 10.7144 3.54664
727 2 24.71 3.74385 10.895 4.38365
799 2 43.583 27.5612 10.8831 3.45379
5 1 9.09065 5.2912 8.82872 2.93405
6 1 11.2476 6.50467 9.81555 1.94557
7 1 10.86 6.27446 12.743 2.59704
440 2 8.55481 4.5826 11.1589 2.27232
451 2 36.0836 7.73728 10.8595 2.23178
77 1 13.7863 5.14636 8.75336 2.16137
78 1 15.829 6.48972 10.443 2.51181
79 1 15.788 6.67487 12.9217 0.957108
512 2 13.3065 5.21005 11.9287 2.26589
523 2 13.4569 7.75374 10.263 1.88443
149 1 18.084 4.75021 9.22457 2.82384
150 1 20.6049 5.88599 9.89027 0.747474
151 1 20.6161 6.14246 12.5986 0.943202
584 2 18.3061 5.23023 12.0958 3.92621
595 2 18.0932 7.64844 11.0253 3.70696
221 1 22.6584 4.71082 9.17155 2.12745
222 1 25.2808 6.47644 10.1669 2.65263
223 1 25.24 6.38772 12.7622 0.747522
656 2 22.9647 4.82419 11.6763 4.15511
667 2 22.8362 7.11406 10.6647 4.00646
293 1 27.6207 4.82483 9.06859 0.801353
728 2 26.978 4.70369 11.6591 4.65371
739 2 27.3504 7.4404 11.1683 2.31481
294 1 29.7071 5.83113 10.2748 2.41668
295 1 29.5056 6.31204 12.8601 0.882763
365 1 32.2236 4.68483 9.05753 2.27948
800 2 31.9144 5.39246 11.6377 2.31191
811 2 31.3028 7.87663 11.4905 2.15252
366 1 33.8947 6.41734 10.2666 1.22946
367 1 34.4299 5.78213 13.0148 3.60928
17 1 11.1202 8.94152 8.86268 1.82253
452 2 11.2629 8.74223 11.7303 1.79807
463 2 38.4011 11.5255 10.9296 2.00017
18 1 13.3418 10.7631 9.59401 2.48925
19 1 13.587 10.4287 12.3184 3.24322
29 1 13.8564 13.5026 8.85354 3.20166
89 1 15.5562 8.9063 9.16335 0.932596
464 2 13.3127 12.8375 12.08 3.59672
524 2 15.468 9.20028 12.0973 3.79738
535 2 15.7079 12.1972 11.1438 2.48018
90 1 17.9121 9.97986 9.77597 2.50984
91 1 18.2013 10.2242 12.5493 2.49092
101 1 18.0132 13.096 9.00189 2.52604
161 1 20.6397 8.52416 8.55982 1.19371
536 2 18.5743 13.3606 12.4192 2.15697
596 2 21.1377 8.35078 11.0941 2.78061
607 2 20.3802 10.4479 10.8799 2.8013
162 1 22.4946 10.2676 9.66691 0.978147
163 1 22.6723 10.4693 12.7475 2.24096
173 1 22.5182 13.007 9.3104 2.69093
233 1 24.6697 8.93812 8.90697 0.863468
608 2 21.6837 13.2131 12.0694 3.11115
668 2 24.6127 9.10498 11.9976 2.15843
679 2 24.4916 11.9222 10.7884 1.95216
234 1 26.9441 9.8964 10.4258 2.79905
235 1 27.3148 10.2073 13.3714 2.46063
245 1 26.8677 12.6123 9.22006 2.47864
680 2 26.8913 13.4725 12.0359 1.92235
305 1 29.6915 8.78039 9.39459 2.09738
306 1 31.4977 10.4923 10.2627 1.77427
307 1 31.9869 10.4254 13.1679 2.71452
317 1 31.5191 13.0839 9.22092 2.23921
740 2 29.8078 9.55859 12.7585 4.31113
751 2 29.0198 11.8627 11.0156 2.09424
752 2 32.2409 13.0826 12.0932 2.22967
377 1 34.0023 8.68195 9.10198 2.30847
378 1 36.2447 10.4259 9.8479 2.77512
379 1 36.6968 10.4059 12.7833 2.1154
389 1 36.456 12.9089 9.15931 0.91243
812 2 33.939 8.96701 12.0243 2.19397
823 2 34.4643 11.9743 10.7556 2.37527
824 2 36.3967 13.4001 11.8826 4.07851
30 1 15.9291 14.3805 10.2441 1.03136
31 1 15.602 14.5054 12.9703 2.06338
41 1 15.3123 16.727 9.23695 0.712959
476 2 15.8255 16.8658 11.7949 3.51387
102 1 20.4758 14.4235 10.2584 2.80795
103 1 20.5812 14.8651 13.6607 1.17686
113 1 20.0079 17.1198 9.57338 2.02708
547 2 18.512 15.8099 11.6809 2.18326
548 2 20.2183 17.7943 12.9037 3.08009
174 1 24.9761 14.5266 10.0534 2.55758
175 1 24.7764 14.4846 13.1376 2.36289
185 1 24.2627 16.8231 9.01353 3.35875
619 2 22.6127 15.4104 11.9183 2.88564
620 2 24.7099 17.711 11.0259 2.58722
691 2 26.7124 15.7777 11.3971 4.12204
246 1 29.1601 14.4068 9.88607 2.57543
247 1 29.8109 14.824 12.7618 3.06736
257 1 29.3582 17.1179 9.23649 1.03917
692 2 29.6313 17.5979 11.6582 5.56378
763 2 31.7342 15.3584 10.6452 2.0282
318 1 34.4236 14.5604 9.87615 2.04362
319 1 34.3894 14.7725 13.0418 2.71214
329 1 34.0638 17.208 8.79328 1.99066
764 2 34.5966 16.7907 11.688 2.38283
835 2 37.4691 15.6969 10.8131 2.45773
390 1 39.1549 14.0365 9.95052 2.73973
391 1 38.8968 14.3372 12.9093 1.04276
401 1 38.773 17.2934 9.32495 2.36529
475 2 13.5845 15.3975 11.4661 3.78817
836 2 39.0011 17.3213 12.2641 1.63826
42 1 17.6809 17.8575 10.4843 2.96656
43 1 17.3897 18.1721 13.0567 2.72621
53 1 17.7676 21.1583 9.03502 2.5112
54 1 20.6142 22.1638 10.2104 2.39005
55 1 20.0535 21.9577 12.9214 2.6127
488 2 17.5203 21.0746 11.9203 2.02545
559 2 19.7635 19.5273 11.3227 2.02532
114 1 22.1218 18.5248 10.2514 2.35667
115 1 22.5008 18.8611 13.1843 3.11051
125 1 22.6361 20.9722 9.1404 3.08662
126 1 25.2 22.2213 9.75544 2.21945
127 1 25.5002 21.8586 13.125 2.7358
560 2 23.3926 21.207 11.9479 2.43307
631 2 25.4898 19.5843 11.679 6.02417
186 1 27.253 18.3872 10.0942 0.86746
187 1 27.2884 18.2351 12.6966 1.1131
197 1 27.3974 20.9251 8.9061 2.63671
632 2 27.4877 21.1718 11.582 3.08218
198 1 29.7457 22.1228 9.9543 1.67257
199 1 29.7108 22.2973 12.763 2.00268
258 1 31.7638 18.1271 10.3728 3.49149
259 1 31.7958 18.4243 12.8321 0.879099
269 1 32.142 21.3052 9.22047 2.37365
703 2 30.0345 19.5935 10.7646 4.55649
704 2 32.1496 20.6723 12.2423 5.47165
270 1 34.4284 22.7681 9.89981 1.04926
271 1 34.0719 22.8973 12.4463 2.67197
330 1 36.5557 18.3736 9.98441 2.32608
331 1 36.2295 18.5897 13.3906 3.60271
341 1 36.7682 21.3902 9.20422 2.14709
775 2 33.5403 19.3953 10.8371 3.16614
776 2 35.5286 20.8901 11.4202 2.46606
342 1 38.9122 22.5466 9.92798 1.868
343 1 38.4562 22.2183 12.5971 2.68715
402 1 41.0563 18.2588 10.1347 2.23198
403 1 41.0947 18.4135 13.3434 2.1425
413 1 41.5067 20.9006 9.39241 2.51051
847 2 38.9493 19.8383 10.8689 1.92868
848 2 41.536 20.7724 12.2671 4.10549
414 1 43.3077 22.4551 10.2128 0.968464
415 1 43.3334 22.7407 12.7294 3.48042
487 2 15.5509 19.5245 10.5834 3.53966
65 1 20.3492 24.9882 9.39768 2.12698
500 2 20.3702 24.6831 12.5765 3.91559
66 1 22.5241 26.3679 10.1182 2.69959
67 1 22.785 26.3288 13.1018 2.6275
137 1 24.9391 24.9422 9.60366 2.47706
571 2 23.366 23.3925 11.1173 2.45624
572 2 24.9307 25.1541 12.4651 2.46925
138 1 27.4632 26.7668 10.0495 1.00144
139 1 27.2868 26.7365 12.523 2.77363
643 2 27.3797 23.8234 10.9091 1.7298
209 1 29.4539 25.3799 9.38912 2.29711
210 1 31.795 26.2875 9.92176 2.47136
211 1 31.776 26.6674 12.8605 2.31041
644 2 29.2481 24.9663 12.8612 2.2392
715 2 31.4792 23.8324 10.8478 3.50002
281 1 34.0135 25.0494 8.48907 2.92121
282 1 36.4269 26.2074 9.99607 0.851908
283 1 36.2252 26.562 12.553 2.14043
716 2 33.6324 25.4889 11.5453 2.25626
787 2 36.4644 23.7117 10.8737 3.25954
353 1 38.8027 25.0659 9.09552 0.872859
354 1 41.0237 26.5822 10.1458 0.882419
355 1 40.7046 26.3842 12.59 2.50911
788 2 38.5781 25.0562 11.4439 4.62044
859 2 41.0485 23.7241 10.9959 3.25183
425 1 43.3253 25.0293 9.35327 2.15747
426 1 45.7583 25.9673 9.98019 0.910471
427 1 46.0382 26.3331 12.7479 2.57431
499 2 18.5701 23.7591 11.3012 4.24081
860 2 43.6487 25.3275 11.9616 3.6543
441 2 49.7743 28.9848 15.1228 4.34565
442 2 11.2185 5.90179 15.5935 3.80477
8 1 13.2212 7.71611 13.5421 2.32044
9 1 13.6918 7.56442 16.5794 1.82533
513 2 13.5152 5.32221 14.3489 2.1933
514 2 15.7623 6.2479 16.4979 2.47844
80 1 18.4698 7.71784 13.6751 3.34118
81 1 18.2543 7.30106 16.2796 3.10294
585 2 18.0359 5.29867 14.6571 3.27089
586 2 20.3733 6.5351 15.4797 3.47229
152 1 22.7063 7.43087 13.4324 1.78054
153 1 22.5776 7.60763 16.7175 2.76398
657 2 22.8164 5.04263 14.8955 3.5947
658 2 24.9887 6.23122 15.8336 2.05649
224 1 27.3322 7.87014 14.0423 1.14297
225 1 27.2016 7.8296 16.867 1.99667
729 2 41.1564 29.0571 14.718 4.19872
296 1 31.1634 7.76759 14.0084 3.73893
297 1 31.896 7.27052 16.5289 2.45286
730 2 29.2536 7.11838 15.636 2.88125
801 2 31.6351 5.02047 14.3783 2.12089
368 1 36.209 7.41738 13.8738 2.8101
369 1 36.8343 7.58651 16.4342 1.27882
802 2 34.2796 6.56634 15.4492 2.24231
453 2 38.5194 8.57524 14.6392 2.37913
10 1 15.8021 9.00346 17.3916 2.29923
20 1 15.8712 11.7285 13.678 2.23132
21 1 15.6933 11.6976 16.83 2.03065
454 2 13.3726 10.6105 14.8334 2.22035
525 2 15.3712 8.23952 14.8095 2.35671
22 1 17.9722 12.6375 17.4782 2.44779
82 1 20.0353 9.1166 17.5588 2.59843
92 1 20.2363 11.9549 13.563 3.11215
93 1 20.3876 11.2726 16.2402 3.18805
526 2 17.7014 10.059 15.2269 1.99334
537 2 17.7547 13.1816 14.9533 2.12078
597 2 20.6327 9.01109 14.12 2.0145
94 1 22.7205 13.0919 17.8943 0.9742
154 1 25.1206 9.46282 17.5991 3.00936
164 1 24.7962 11.8524 13.8777 2.13244
165 1 25.0411 12.0661 16.8786 2.5279
598 2 22.668 10.2756 15.3388 1.99909
609 2 23.1591 13.1017 14.9791 4.26405
669 2 24.8369 8.30688 15.0349 2.55736
166 1 27.5408 12.8705 17.7732 2.66559
670 2 26.9094 10.6943 16.1891 6.33861
681 2 27.0546 13.0739 14.8606 1.89906
226 1 29.5849 9.49581 18.3071 3.70994
236 1 29.7523 11.7666 14.1705 2.70861
237 1 29.6427 11.8884 16.9651 1.37586
238 1 31.8535 12.4297 17.6873 1.02777
741 2 29.5832 9.34128 15.3514 2.36422
742 2 32.6986 9.79491 15.2112 6.04187
753 2 31.7805 12.9216 15.0635 3.41834
298 1 34.5828 9.00085 17.3569 2.07043
308 1 34.5205 11.7052 13.5143 1.09784
309 1 34.1815 11.5241 16.2224 2.31766
310 1 36.7056 13.2375 17.5355 1.97851
813 2 34.5168 9.04369 14.7266 2.87548
814 2 36.5848 10.7328 15.5186 4.02313
825 2 36.6223 13.1262 14.2039 2.45768
370 1 38.7355 8.9682 17.0818 2.46515
380 1 39.0264 11.8168 13.5627 1.02149
381 1 38.9927 11.8824 16.4736 1.91219
382 1 41.0599 13.4111 18.0785 2.41885
465 2 40.936 13.4219 14.9463 1.93344
466 2 15.6683 14.2059 16.2459 1.7956
32 1 18.0469 15.7578 14.3693 2.16804
33 1 18.3541 15.3343 17.1662 1.99644
34 1 20.3149 16.5999 18.0918 0.900204
538 2 20.9352 13.8099 16.1898 4.38205
549 2 20.6835 16.8945 15.6435 4.13186
104 1 22.5684 15.5541 14.7426 1.08186
105 1 22.7478 15.5797 17.4261 1.06044
106 1 24.9788 16.419 17.7259 2.55754
610 2 24.6462 14.2499 15.8979 3.7
621 2 25.408 16.7947 14.0256 2.44374
176 1 27.7097 15.6748 13.6353 1.08095
177 1 27.5086 15.2424 16.4535 2.88949
178 1 29.4961 17.4394 17.8408 3.17257
248 1 32.0754 15.9846 13.9443 2.28528
249 1 32.1799 15.2178 16.851 3.56093
682 2 29.6624 14.5205 15.2473 4.77428
693 2 29.2732 17.0448 14.8004 1.87533
250 1 33.9436 17.0436 17.2159 1.01837
320 1 36.8167 15.9944 13.7291 0.862225
321 1 36.4693 16.2256 16.8582 2.27511
754 2 34.166 14.3113 15.6941 2.17869
765 2 34.8249 17.1119 14.6914 4.5266
322 1 38.9498 17.2207 17.5877 0.921196
392 1 40.8924 15.9626 13.711 0.911399
393 1 40.8954 15.6992 16.7858 0.993294
826 2 37.8969 14.391 15.4124 2.39593
837 2 38.9512 16.7305 15.1144 4.30371
394 1 43.4492 17.1591 17.6385 2.19059
477 2 43.4716 17.0484 14.7934 2.10422
44 1 20.2908 19.733 14.3179 2.27718
45 1 20.1724 19.3976 17.0187 1.06647
478 2 18.2355 18.0955 16.0789 2.25327
490 2 20.2516 22.5635 15.6663 1.70392
46 1 22.6526 20.4415 17.5215 0.952015
116 1 24.984 19.3055 14.0467 0.916568
117 1 25.0033 19.5113 16.8515 2.53765
550 2 22.9175 18.1505 16.2541 3.21709
561 2 22.7884 21.1613 14.7916 2.37558
562 2 25.2119 21.8038 15.9861 1.9323
118 1 27.6467 20.8018 17.6531 2.21451
622 2 26.8884 18.0139 16.0394 1.56328
633 2 27.6822 20.5694 15.0586 4.94281
188 1 29.2529 19.7468 13.3888 0.915936
189 1 29.6625 19.7707 16.2441 1.09283
190 1 31.7092 20.8518 17.7005 0.879741
634 2 29.5501 22.4859 15.2326 2.30641
694 2 32.2235 18.2237 15.6138 2.17581
705 2 31.8518 21.0115 14.6935 1.75715
260 1 34.0244 20.1394 13.5617 1.18455
261 1 33.9738 19.8202 16.3732 1.12332
262 1 36.5589 21.0318 17.1231 2.94598
706 2 34.3611 22.2164 15.4171 2.04953
766 2 36.3432 18.923 15.8335 4.98154
777 2 36.7674 21.4207 14.1887 4.17121
332 1 38.5953 19.8761 13.8177 2.33659
333 1 38.517 19.7667 16.5105 0.92568
334 1 41.0249 21.0665 17.6031 2.87863
778 2 39.0297 22.702 15.1151 2.26122
838 2 41.6931 18.1992 16.0376 1.67106
849 2 40.8208 20.7244 14.9865 2.24033
404 1 43.252 20.0207 13.8797 2.17961
405 1 44.1157 19.8488 16.6889 3.49467
406 1 45.7693 21.3834 17.81 2.76137
489 2 18.2372 21.1071 15.0883 3.44018
850 2 42.8865 22.1737 15.4829 3.85902
56 1 22.7966 23.7886 13.6605 2.73443
57 1 22.8338 23.1386 16.9184 2.09916
58 1 25.2131 24.5099 17.9871 2.59994
502 2 22.9988 26.2692 15.7941 1.68839
573 2 25.2995 24.6075 15.4077 2.29202
128 1 27.3327 23.6351 14.0302 2.16292
129 1 27.6169 23.6058 16.9557 1.9576
574 2 27.6171 26.11 15.5997 1.88748
130 1 30.0442 24.6569 17.8703 1.39131
200 1 31.8196 23.8049 13.1732 1.06937
201 1 31.9289 23.418 16.531 1.83692
645 2 30.4058 25.3352 15.3105 2.32322
646 2 32.2867 26.4728 15.6496 2.1959
202 1 34.0906 24.8084 17.842 2.48901
272 1 36.494 23.884 13.829 2.32927
273 1 36.3283 23.6092 16.7274 2.34279
717 2 33.8716 24.8878 14.5813 2.073
718 2 36.1053 26.0861 15.8914 4.19705
274 1 38.5934 25.3307 17.211 2.55689
344 1 41.204 23.3268 13.6808 2.59772
345 1 41.1691 23.8181 16.3475 1.17974
789 2 38.2758 25.2375 13.5039 3.27939
790 2 41.4695 25.793 15.3432 3.04862
346 1 43.081 25.1228 17.4437 2.94092
416 1 45.9346 23.673 13.9735 2.24592
417 1 45.4623 23.683 16.6271 1.02022
861 2 43.3218 24.2584 14.9013 5.54753
862 2 45.3804 25.8743 15.3433 2.2868
418 1 48.1541 24.9103 17.5777 2.20059
501 2 20.6129 25.0288 15.1558 2.71504
68 1 25.0315 27.7046 14.2198 2.11362
69 1 25.04 27.2153 16.9978 2.59283
70 1 27.4607 28.7399 17.5467 1.67575
140 1 29.5292 28.0161 14.1634 2.13382
141 1 29.9562 27.5024 16.6471 2.29387
142 1 32.0957 28.9044 17.5418 1.59659
212 1 33.9833 28.0173 13.6555 0.863728
213 1 34.5425 27.5668 16.5717 2.98692
214 1 36.6868 29.0548 17.4382 2.83632
284 1 38.7804 27.7291 13.6458 2.05107
285 1 38.8683 27.6084 16.487 2.58409
286 1 41.0682 29.2435 17.6818 2.34108
356 1 43.3445 27.6947 13.5519 2.54261
357 1 43.1832 27.7458 16.1433 2.30904
358 1 45.5161 28.5507 17.2336 2.92796
428 1 47.976 27.4314 13.9142 0.923141
429 1 48.1826 27.3797 16.8258 2.2231
430 1 50.7534 29.0484 17.4631 1.05676
443 2 25.2397 29.9543 18.3583 2.05915
444 2 13.572 7.44781 19.2022 1.98222
515 2 15.9541 6.81526 18.851 2.16024
516 2 17.8715 8.36541 19.8392 2.74608
587 2 34.3894 30.2237 18.6577 3.47744
588 2 22.5821 7.61077 19.4448 1.93181
659 2 25.481 6.48671 18.7258 3.87698
660 2 27.7707 7.94706 19.9428 1.99378
721 2 18.122 0.183662 0.24244 2.06508
731 2 43.5721 30.0166 18.7715 2.06886
732 2 31.8001 7.38918 19.5273 2.05979
793 2 36.5673 8.09643 21.5822 2.46142
803 2 47.9055 30.3451 18.1719 1.82887
804 2 36.6043 7.58988 18.9795 2.28595
11 1 15.4764 9.35331 20.432 2.93572
455 2 40.978 10.4341 17.9836 2.30776
456 2 15.4083 11.7491 19.5351 1.9009
12 1 17.8064 10.3683 21.3721 2.50133
23 1 18.2577 13.0464 20.3049 0.856014
83 1 20.5153 9.21544 20.2552 2.33172
527 2 17.7505 10.335 18.3163 3.65968
528 2 19.9458 11.4853 19.48 3.62878
84 1 22.854 10.238 21.2173 1.06139
95 1 22.4679 12.7298 20.6208 0.950252
155 1 25.1115 8.86077 19.9977 3.37543
599 2 22.558 10.8044 18.3874 4.07264
600 2 24.4705 11.4359 19.7302 4.75112
156 1 27.3125 9.89757 21.9034 3.16213
167 1 27.2729 12.843 20.7931 3.3655
671 2 26.9675 11.0303 19.437 4.73061
227 1 30.1979 9.10696 20.552 1.0312
228 1 32.1685 10.6781 21.4459 1.03551
239 1 32.2544 13.2621 20.3673 1.02341
672 2 30.1074 11.9245 20.2825 4.85055
743 2 32.4684 10.3821 18.8642 2.50627
299 1 34.2464 9.42117 20.3694 1.06133
300 1 36.6139 10.6652 20.9048 0.913586
311 1 36.5363 13.1262 20.4883 0.90243
733 2 20.6852 3.79075 -0.529843 3.82958
744 2 34.3749 11.7594 19.137 3.18154
815 2 36.6391 10.7918 18.0303 2.49132
371 1 38.8396 8.78604 20.0845 2.90948
372 1 41.1718 10.5038 21.4469 2.26948
383 1 41.2374 13.3227 21.0265 2.25157
805 2 38.6985 12.1295 22.2642 2.17604
816 2 38.6476 11.8686 19.3555 1.64556
24 1 20.5074 13.9112 21.5126 0.803218
35 1 20.4659 17.2555 20.3405 0.830641
468 2 18.0667 16.1316 19.7563 3.81342
539 2 20.2921 13.902 18.7925 3.6917
96 1 24.4342 14.3987 21.8556 3.77589
107 1 24.7786 16.97 20.4273 1.97818
540 2 22.3991 15.1515 19.8405 4.21385
611 2 24.8876 14.1261 19.3856 4.57746
612 2 26.9983 15.4861 19.2501 2.17251
168 1 29.9441 14.4111 21.4275 2.63949
179 1 29.2049 16.8052 20.4286 0.984342
683 2 29.9142 14.2918 18.4887 1.95393
684 2 31.9151 16.1453 18.9937 2.31271
240 1 34.5219 14.5627 21.2526 2.00471
251 1 33.9904 17.3055 20.4296 2.64786
745 2 36.5883 15.6841 22.2969 2.44507
755 2 33.9562 14.1397 18.4799 1.74523
756 2 36.2281 15.6803 19.2402 1.67902
312 1 39.075 14.722 21.6523 2.82255
323 1 39.0944 17.0704 20.179 2.66308
817 2 27.6148 7.6707 -0.504748 1.56937
827 2 39.0122 14.7014 18.9995 2.30289
828 2 41.0783 16.1812 19.5654 4.44877
384 1 44.0604 14.354 21.4699 2.34848
395 1 43.6918 17.4214 20.323 0.916463
467 2 43.3576 14.9 19.222 2.05099
480 2 21.3056 19.1938 19.116 6.80845
36 1 22.6305 18.1436 21.0877 0.869784
47 1 22.6734 21.3329 20.6338 2.97399
48 1 25.0775 21.5935 21.4762 1.31044
551 2 23.1193 17.9068 18.4475 4.50611
552 2 25.1243 19.8895 19.6196 4.20219
563 2 25.2134 22.2328 18.5925 4.03915
108 1 27.5253 18.454 21.4911 1.04196
119 1 27.5216 20.9803 20.7308 0.922733
623 2 27.2516 18.5334 18.8525 1.99808
120 1 29.9952 22.2723 21.4367 2.70264
180 1 31.6744 18.431 20.7804 0.89945
191 1 31.801 20.8762 20.6986 1.12937
624 2 29.7898 19.8424 19.0598 4.37848
635 2 30.5762 22.5454 19.1175 5.89744
695 2 32.1036 18.4692 18.1998 4.73335
192 1 34.4443 22.0208 21.0826 1.20745
252 1 36.7442 18.3753 21.1463 2.25337
263 1 36.8506 20.8356 20.5935 3.04433
696 2 34.0644 20.2317 19.3619 2.01692
707 2 34.1801 22.2358 17.8888 3.93725
767 2 36.2862 18.7738 18.4491 1.84029
264 1 38.762 22.3186 21.2684 0.896201
324 1 41.4624 18.8233 21.2993 1.72922
335 1 41.2301 21.2746 20.464 0.946695
757 2 24.8912 12.2277 -0.287856 5.32536
768 2 38.9349 19.388 19.4818 3.70175
779 2 38.7084 22.0493 18.4076 1.855
839 2 41.1065 18.3955 18.5197 1.94584
336 1 43.2438 22.6358 21.2748 2.28952
396 1 45.6173 18.3321 21.2039 2.41575
407 1 45.8965 21.0363 20.7268 2.02751
479 2 46.033 18.6977 18.3637 4.36363
829 2 29.3094 12.167 0.0935722 4.85287
840 2 43.582 19.9915 19.6717 4.05326
851 2 43.3745 22.7632 18.1468 1.83533
408 1 47.971 22.275 21.8231 0.98282
491 2 20.5916 21.9151 18.7005 2.16351
59 1 24.9329 24.0318 20.9825 1.52862
492 2 22.9883 23.6697 19.6877 4.92848
503 2 50.5253 27.0088 18.6288 4.78096
60 1 26.9104 25.9769 21.0427 3.04314
564 2 27.8402 23.5044 19.867 2.30384
575 2 27.9071 25.9924 18.4618 3.02272
131 1 29.8232 25.1214 20.3285 2.13518
132 1 32.1422 26.4309 21.578 1.81215
636 2 32.7339 22.8905 19.6869 6.09569
647 2 31.4729 26.2566 18.5318 4.63768
203 1 34.2909 24.8466 20.3917 2.3412
204 1 36.5693 26.4523 20.8503 1.07154
708 2 36.3095 23.4858 19.122 4.1252
719 2 36.3372 26.7579 18.1404 5.1362
275 1 38.3558 24.8474 19.921 2.7264
276 1 41.1034 26.1784 21.4027 2.54958
769 2 40.9135 23.7443 21.8173 2.22264
780 2 40.5022 23.6173 18.9996 2.14997
791 2 40.7903 26.5657 17.52 2.21498
347 1 43.2662 25.1003 20.5307 2.62265
348 1 46.0687 26.8176 21.2401 3.30046
841 2 31.9215 15.3205 -0.360069 1.99928
852 2 45.7509 23.6077 19.4043 2.34512
863 2 45.8542 26.2651 17.9579 2.10674
419 1 48.4959 25.0256 20.3927 2.97197
420 1 50.6624 26.1384 21.1719 2.58854
504 2 25.487 27.2983 19.4585 2.04081
71 1 27.6212 28.7878 20.2488 2.02393
72 1 29.8086 30.2054 21.6805 2.97675
143 1 32.1924 29.1231 20.2658 1.7141
576 2 29.6988 28.0862 19.3062 2.17553
144 1 34.4414 30.4521 21.1049 2.26965
215 1 36.993 28.6665 20.1362 2.39986
648 2 34.1612 27.4345 19.5631 3.56595
216 1 39.508 30.2188 21.6558 0.97759
287 1 41.4094 29.0494 20.5498 2.40823
720 2 39.6254 27.6354 19.81 2.5822
288 1 44.2322 30.5616 21.4331 1.03446
359 1 45.2298 28.7822 20.1719 1.52373
781 2 29.5758 19.4251 -0.287626 2.25387
792 2 42.8803 27.1114 19.251 2.35203
360 1 48.2123 30.806 21.1023 2.62866
431 1 50.2553 29.0703 20.1526 2.60637
853 2 48.3924 27.4455 22.1494 2.13022
864 2 47.901 27.8232 19.494 2.13698
432 1 52.714 30.135 21.3674 2.46955
ITEM: TIMESTEP
250
ITEM: NUMBER OF ATOMS
864
ITEM: BOX BOUNDS xy xz yz pp pp pp
-4.4477764057583408e-01 5.5288250717779803e+01 1.3957102705314968e+01
-4.1538174578080234e-01 3.1802354526344701e+01 1.3931448012231055e+01
-3.7067869644249946e-01 2.2379280642275564e+01 8.0433252600628844e+00
ITEM: ATOMS id type x y z f_grace_gamma
433 2 41.1108 7.59314 22.1666 2.32012
434 2 1.64922 0.427488 0.692444 2.05863
435 2 2.45446 1.10495 3.24083 2.05184
445 2 2.25064 3.77627 0.147543 2.90312
1 1 4.48843 1.4645 1.35579 4.19056
2 1 6.90157 3.71525 2.80984 2.96107
505 2 18.116 23.88 -0.161368 4.30653
506 2 7.00905 0.503444 0.158285 2.09462
507 2 6.46428 1.43969 3.38795 2.81426
517 2 6.38069 2.99733 -0.0804902 2.19001
73 1 8.81412 2.38578 1.90142 1.00272
74 1 11.1046 2.88879 2.74653 3.36996
577 2 23.1037 7.46072 22.0149 2.13185
578 2 11.004 0.923432 0.622088 1.99224
579 2 25.0662 24.781 3.06032 4.04646
589 2 24.5799 12.2692 22.5319 2.1225
145 1 13.5712 1.80669 1.88301 1.2473
146 1 15.9082 3.3199 2.46495 2.10534
649 2 27.82 23.4479 0.289342 4.00274
650 2 16.215 0.532315 0.834363 5.03106
651 2 29.7883 24.99 3.04473 3.60117
661 2 15.7496 3.0176 -0.311901 2.17517
217 1 18.3667 2.50267 1.56195 2.73671
218 1 20.4343 3.92871 2.61809 1.0219
722 2 20.709 1.14734 0.189441 3.96483
723 2 20.447 0.9613 2.59211 2.32595
289 1 22.6576 2.47548 1.22476 3.39152
290 1 25.2132 3.73834 2.45296 1.99117
794 2 24.7196 0.462258 0.39271 2.68626
795 2 39.3508 25.0573 3.71395 4.05883
361 1 27.2535 2.23356 1.38275 3.1882
362 1 30.6811 3.70267 2.72067 4.33608
13 1 6.53611 6.56165 1.53466 0.912146
446 2 4.79047 4.90766 0.822677 3.91413
447 2 4.66469 4.96814 3.53246 5.6344
457 2 4.6434 7.7284 -0.0867534 3.34086
14 1 9.19946 7.50567 2.25568 0.775538
85 1 11.4968 6.50457 1.65385 1.24153
518 2 8.72273 5.05596 0.630382 4.55003
519 2 9.40101 5.12159 3.04601 3.37104
529 2 8.05443 7.78654 -0.162611 4.72505
86 1 13.3992 7.66774 2.50286 1.00674
157 1 15.4185 6.48552 1.41391 2.66115
590 2 13.0094 4.27231 0.864813 1.9698
591 2 13.5531 4.31087 3.12792 2.34935
601 2 13.4958 7.56878 -0.121766 2.29229
158 1 17.7445 7.44495 2.09378 1.24004
229 1 20.1166 6.25899 1.69916 0.879072
662 2 17.8883 5.86581 0.169815 4.33525
663 2 17.9646 5.22171 2.77018 5.73764
673 2 31.8911 16.2711 22.2014 3.93995
230 1 22.4983 7.47129 2.24074 1.01919
301 1 25.0318 6.33044 1.47685 2.45728
734 2 22.4143 4.89127 0.895721 2.17113
735 2 22.7976 5.13284 3.97173 4.90518
302 1 27.4674 7.72416 2.08951 2.34832
806 2 27.4733 5.02925 0.646508 4.08608
807 2 26.9769 5.05351 3.7152 2.78861
373 1 29.9345 6.55671 1.14374 1.10133
374 1 32.2297 7.12284 2.58361 1.03896
458 2 6.09106 9.97038 0.207198 4.36585
25 1 8.66766 9.85778 1.30943 2.43192
26 1 10.6735 11.3616 2.82216 2.782
470 2 8.45039 12.3929 0.641208 3.81549
471 2 36.5094 12.3661 4.19984 3.07442
530 2 11.2774 8.7905 0.641927 3.97723
531 2 11.4735 8.96958 3.60969 3.62798
541 2 10.4403 11.2856 0.113035 5.68511
97 1 13.3244 10.5431 1.58223 2.69641
98 1 16.0825 11.4827 2.2748 1.14055
542 2 13.8971 13.216 0.469962 4.00133
543 2 13.2393 12.5339 3.25225 4.69387
602 2 15.9716 9.00981 1.22141 4.82367
603 2 15.4637 8.7103 3.82707 1.8247
613 2 29.7702 19.6957 22.2219 4.30429
169 1 17.9865 10.292 1.30335 1.23875
170 1 20.2525 11.5889 2.21923 2.04501
614 2 18.1978 12.9738 0.635702 4.05204
615 2 17.8518 12.4539 3.9076 3.10902
674 2 19.9362 8.98263 0.571006 4.13499
675 2 20.876 9.08277 3.50496 2.51845
685 2 34.9296 19.5021 22.2674 2.27147
241 1 22.7247 9.64424 1.31777 2.5759
242 1 24.9451 11.5878 2.46422 2.39772
686 2 22.6865 12.4958 0.83618 2.52207
687 2 22.2292 13.352 3.68766 2.06122
746 2 25.3868 9.45834 0.137523 2.04644
747 2 25.3319 8.80482 3.08412 3.88786
313 1 27.5474 10.3924 1.67724 2.1861
758 2 27.0399 13.0416 1.04575 1.96955
759 2 27.245 12.8908 3.38574 1.69733
314 1 29.6419 11.6653 2.55373 1.06834
385 1 32.0313 10.5132 1.70167 2.68613
818 2 29.7806 9.19386 0.439828 2.03572
819 2 29.6208 8.83809 3.06529 4.08087
830 2 32.2074 12.9868 0.827251 4.48259
831 2 31.9515 12.5218 2.98803 5.05
386 1 34.4466 11.5728 2.20292 1.01261
459 2 34.2163 8.86193 3.46716 4.34308
469 2 20.3062 20.1997 21.4263 5.88527
37 1 11.0719 13.5986 1.2889 3.19009
482 2 11.0367 16.4263 1.05602 2.23088
38 1 13.3019 15.3506 2.88229 1.1317
109 1 15.7688 14.3085 1.77307 1.03453
553 2 14.1357 15.432 0.240195 3.29878
554 2 15.871 16.7287 0.838434 2.17133
555 2 15.6788 16.7756 3.48481 2.25792
110 1 17.9457 15.1969 2.17372 2.96393
181 1 20.5391 14.2555 1.33035 1.16153
625 2 32.3163 23.466 22.0242 4.1111
626 2 19.8119 16.8696 0.622535 4.43173
627 2 20.3703 17.1903 3.41194 2.33584
182 1 22.4924 15.9448 2.23228 2.38565
253 1 24.5927 14.0779 1.44343 2.80115
697 2 36.0512 23.7332 22.193 4.64071
698 2 24.4558 16.6064 0.237518 2.38149
699 2 24.5243 17.0936 3.53866 2.56068
254 1 27.2744 15.8276 2.57141 2.86368
325 1 29.5906 14.3564 1.81789 2.19445
326 1 32.2272 15.6882 2.63994 1.98754
770 2 30.5711 16.3338 0.474748 3.15828
771 2 29.7796 16.9929 3.87492 2.36693
397 1 34.44 14.1898 1.83319 0.983674
398 1 36.5372 15.6441 3.06707 2.86772
481 2 36.2971 15.9105 0.00907423 1.87685
842 2 34.1049 16.8548 0.241647 2.77252
843 2 34.2487 17.1055 3.14275 2.42245
483 2 38.9675 17.2156 3.30596 1.90143
493 2 24.9981 27.1407 22.2456 3.95288
49 1 13.4296 18.264 1.30779 2.47702
50 1 15.7326 19.5864 2.34588 2.70903
61 1 15.8953 22.1275 1.73422 2.6908
494 2 13.6414 21.746 0.327931 3.19259
495 2 13.495 20.69 3.95201 2.672
565 2 29.861 27.4673 21.9798 2.20063
121 1 18.4285 18.2188 1.56817 2.81877
122 1 20.4721 19.8592 2.71342 3.50576
133 1 20.6067 22.2787 1.93962 0.932083
566 2 18.4658 21.0823 0.255278 1.75386
567 2 18.4249 21.0325 3.59468 4.41561
637 2 34.5899 28.2259 22.1927 2.02822
193 1 22.1936 18.449 0.728229 1.09877
194 1 24.4815 19.2975 2.23538 2.30947
205 1 25.2208 22.1916 1.73019 2.11041
638 2 22.8586 20.8536 0.158144 2.05791
639 2 22.9078 21.3021 2.77024 2.80112
709 2 38.6506 27.867 22.1247 1.91734
265 1 26.8454 17.7094 1.25653 3.6482
710 2 27.5144 20.3682 0.594639 2.08364
711 2 27.2516 20.5024 3.08985 2.35222
266 1 29.6329 19.2213 2.36422 2.67733
277 1 29.7173 22.0496 1.54005 1.02869
337 1 32.2695 18.3658 1.44101 2.29343
782 2 32.4549 21.513 0.186866 2.02577
783 2 31.4904 20.639 3.20186 3.78134
338 1 34.1922 19.9997 2.80249 2.77896
349 1 34.3928 22.7395 1.6032 2.75897
409 1 36.9409 18.754 1.62875 2.88119
854 2 36.7169 21.9049 0.128483 2.29314
855 2 37.4746 21.4952 3.16612 2.60679
410 1 39.3581 19.8948 2.49376 3.33721
421 1 39.1145 22.4607 1.46541 3.15593
62 1 18.2906 23.3711 2.38325 1.09184
134 1 22.7282 23.8152 2.55143 2.11996
206 1 27.6716 23.2081 2.99152 2.79178
278 1 31.9167 23.4025 2.42344 2.59674
350 1 37.0824 24.067 2.17622 1.15389
422 1 41.34 23.3095 2.82453 2.52418
3 1 7.05902 4.11151 5.66073 0.796441
436 2 4.62388 2.67321 4.28266 1.94945
437 2 4.43983 2.45893 7.32029 4.02624
438 2 6.54047 3.54021 7.73968 4.96436
75 1 11.6035 3.5493 5.55463 2.34878
508 2 8.94348 2.15715 4.38588 3.75173
509 2 8.91139 2.24989 6.72316 2.67917
510 2 11.3999 3.66279 8.32496 2.30745
147 1 16.4836 3.61326 5.26222 1.53785
580 2 13.637 2.15997 4.41363 4.32444
581 2 27.4121 26.483 7.29993 4.25838
582 2 16.2933 3.42994 7.9936 4.4452
219 1 20.7763 3.75081 5.215 2.96103
652 2 18.4493 2.27896 4.09282 4.74208
653 2 32.1144 25.9617 7.13883 1.97661
654 2 20.2995 3.32347 8.09618 4.66013
291 1 25.504 3.72623 5.16914 2.36017
724 2 22.9473 2.45926 3.94709 4.24657
725 2 22.9032 2.53894 7.59952 4.71962
726 2 25.848 3.91231 8.07708 2.07405
796 2 27.8715 1.9608 4.19391 1.90193
797 2 42.2759 26.307 7.22966 5.55113
363 1 29.9046 4.00784 5.6115 2.78912
798 2 30.0829 3.68209 8.27113 4.58196
448 2 6.93078 6.33444 4.15726 3.60561
449 2 7.15235 6.57599 7.51948 2.40672
4 1 9.44544 5.02519 6.39094 1.21083
15 1 9.14722 7.21863 5.11108 3.09768
450 2 9.91477 7.27826 7.64337 2.72346
520 2 11.3441 5.87798 4.3622 4.29916
521 2 12.0269 6.41717 6.87086 4.99788
76 1 14.0278 4.76204 5.79776 1.00856
87 1 13.3961 7.63759 5.20398 3.01264
522 2 13.1439 8.26056 7.82231 4.74229
592 2 15.0929 5.87138 3.91785 2.41332
593 2 15.7395 6.64038 7.15359 4.51098
148 1 18.0935 5.2052 6.08106 2.59425
159 1 17.7758 7.73379 5.12828 2.65238
594 2 18.2476 7.2102 8.85313 4.6427
664 2 20.1672 6.57987 4.39953 4.21641
665 2 20.1475 5.99208 6.90644 4.40042
220 1 22.7261 5.071 6.58602 2.47743
231 1 22.3893 7.47886 5.0737 2.66979
666 2 23.3286 7.15191 8.74225 2.59918
736 2 24.6216 6.19521 4.31124 2.616
737 2 25.8529 6.56655 7.31844 2.06855
292 1 27.7463 5.14727 6.16373 2.41771
303 1 27.1097 7.78403 4.99466 2.72577
738 2 27.6374 7.87529 7.91999 1.87335
364 1 32.6009 5.25255 6.02618 2.98552
375 1 31.8565 7.75458 5.2842 1.1609
808 2 29.9682 6.08952 4.12236 4.27383
809 2 29.6453 6.0248 7.73429 2.25234
810 2 31.7837 7.42726 8.57101 2.22917
16 1 11.5943 9.14491 6.187 0.9338
27 1 11.2122 11.8452 5.3471 1.37153
460 2 9.04073 9.7525 4.46052 2.08546
462 2 11.7178 12.3114 7.70141 2.19291
28 1 13.4616 13.3925 5.41611 1.10386
88 1 16.0969 9.08071 6.70783 3.07366
99 1 15.6624 12.4208 5.33832 4.1361
532 2 13.8632 10.2737 3.92211 1.90553
533 2 13.5836 10.9064 6.54124 2.10345
534 2 15.5285 11.6154 8.52344 1.89175
100 1 18.5206 13.2188 6.14003 3.12222
160 1 19.5542 8.99542 6.46153 3.13169
171 1 20.4065 11.477 5.59191 2.56091
604 2 17.8624 9.98377 3.89297 2.24562
605 2 17.8031 10.9591 7.58936 3.09248
606 2 20.3819 11.419 8.36444 5.19263
172 1 22.5152 12.896 6.4452 2.57303
232 1 24.5573 8.86194 5.88095 2.84607
243 1 25.0443 11.4746 5.11938 2.23384
676 2 22.605 9.85643 3.82718 2.87629
677 2 22.6754 9.76668 7.13248 4.83613
678 2 24.7712 11.613 8.26579 4.53875
244 1 27.3794 12.7723 6.6404 2.43754
748 2 27.5636 10.6594 4.53517 2.31781
749 2 26.948 10.4264 7.30462 2.07966
304 1 29.5734 8.91685 5.9381 2.84445
315 1 29.973 11.5258 5.34818 3.08644
316 1 32.3838 12.897 6.55441 1.14095
750 2 29.1319 10.9807 8.31532 1.70114
820 2 31.7084 9.85071 4.06373 4.88019
821 2 31.8668 10.2786 7.68854 2.17889
376 1 33.9342 8.79859 6.12046 3.06968
387 1 33.5424 11.6409 4.79879 4.04628
388 1 37.0839 13.1989 6.36263 3.26909
461 2 9.33203 10.7876 6.97933 2.36551
822 2 34.2532 11.3837 8.31781 2.1446
472 2 11.2135 14.3604 4.24384 3.90339
39 1 13.3066 15.7762 5.2614 1.08155
40 1 15.5162 16.9411 6.55991 0.902566
474 2 12.7067 16.2528 7.87126 4.77578
544 2 15.5622 14.3212 4.21425 4.93641
545 2 16.2243 13.8039 7.20032 4.41833
111 1 17.7327 15.8683 5.57076 2.59436
112 1 20.1424 17.3464 6.24862 3.11601
546 2 18.1576 15.7698 8.67918 4.83376
616 2 19.7443 14.5238 4.10442 2.32053
617 2 20.2483 15.432 7.41625 2.52936
183 1 22.8769 15.566 5.50163 3.33249
184 1 25.3293 16.4418 6.58875 3.64285
618 2 22.7747 15.0568 8.15446 5.58678
688 2 24.4336 14.3312 4.49035 2.73068
689 2 25.1944 13.9312 7.2756 5.91382
255 1 27.5407 15.1739 5.68402 2.28567
690 2 27.7495 15.9731 8.51569 2.6413
256 1 30.372 16.4997 6.64278 3.12809
327 1 32.279 15.4863 5.26631 1.0509
760 2 30.3689 14.0312 4.29456 2.02881
761 2 30.0141 13.6814 6.70849 2.56104
762 2 31.9833 15.4385 8.22714 2.06415
328 1 34.9254 17.1603 5.90072 3.28369
399 1 37.2588 15.8054 5.51422 1.15445
832 2 35.0535 14.7189 4.9531 2.86783
833 2 34.9085 15.0145 7.27411 2.38468
834 2 37.5568 15.2848 8.27443 4.7404
400 1 39.1222 17.4843 6.46727 1.00977
473 2 11.5909 14.4819 6.72596 5.52156
51 1 16.0844 19.8092 5.54254 2.08263
484 2 13.823 18.353 5.11679 1.72336
486 2 15.9169 19.6285 7.98641 2.23516
496 2 16.043 22.3348 4.18843 1.9833
52 1 18.2239 21.1282 6.29736 1.15554
123 1 20.6334 19.8597 5.64854 3.04858
556 2 17.8374 18.0884 4.40275 2.2259
557 2 17.8266 18.512 7.6207 2.04897
558 2 19.8354 19.3394 8.59209 2.36587
568 2 21.2386 22.3729 5.09254 3.22083
569 2 20.112 21.874 7.6687 2.93542
124 1 22.8638 21.2186 6.34999 2.82127
195 1 24.8596 19.6474 5.29961 2.80539
628 2 23.094 17.9312 4.85835 2.97653
629 2 22.7134 18.4438 7.09554 2.53704
630 2 25.8556 19.2131 7.88767 2.87778
640 2 24.9049 22.6969 4.12119 2.4823
641 2 25.1595 22.5343 7.32388 2.17804
196 1 27.7821 20.8142 6.16527 2.5478
700 2 27.4135 18.1712 4.15311 11.9808
701 2 28.3187 17.7534 7.36865 3.31585
267 1 30.4718 19.6495 5.19111 2.90193
268 1 32.6122 20.9701 6.05268 2.92107
702 2 30.346 19.2052 8.06082 2.57577
712 2 30.0021 22.6404 4.77161 2.36028
713 2 29.2261 22.7116 7.3725 2.36619
772 2 32.0093 18.2488 3.94476 4.4425
773 2 32.7999 17.6819 7.09346 2.66086
339 1 35.0205 19.8893 5.36052 3.02076
340 1 36.9051 21.4339 6.43026 2.11097
774 2 34.1712 20.4293 7.88644 5.37452
784 2 34.8155 22.3753 4.20843 2.02124
785 2 34.1225 22.6655 6.80155 2.532
844 2 37.1557 18.0793 4.78141 5.95972
845 2 36.3584 18.4638 7.57032 2.67466
411 1 39.3333 19.9166 5.38382 2.3986
412 1 41.183 20.9162 6.79974 2.75694
485 2 41.3029 18.9118 7.82452 4.19361
846 2 39.0835 19.4493 8.20897 3.35366
856 2 39.5259 22.4876 5.17137 1.80052
857 2 38.7151 23.585 7.44417 3.05018
497 2 43.0994 22.3006 7.40736 1.87586
63 1 18.4594 23.8295 5.08301 0.971543
64 1 20.2697 24.9552 6.24436 2.78292
498 2 18.018 23.865 8.17201 1.74697
135 1 22.9418 24.1547 5.47419 2.58813
136 1 25.105 25.2551 6.4521 0.930762
570 2 22.9411 24.3036 8.41178 2.76333
207 1 27.5055 24.2261 5.55539 2.39132
642 2 27.5121 23.8514 8.34306 2.49414
208 1 29.6826 25.7134 6.19088 3.26277
279 1 32.2988 24.0232 5.12883 2.48523
714 2 32.0106 23.6931 8.2757 5.14019
280 1 34.7796 25.2143 5.45762 3.11574
351 1 37.2463 24.2479 4.85137 2.88076
786 2 36.4206 24.2192 7.53978 2.27631
352 1 39.2218 25.5064 6.32537 2.02925
423 1 41.7123 24.041 5.59618 2.71951
858 2 41.1098 23.6236 8.31569 3.8382
424 1 44.2231 25.1631 6.60966 3.32487
439 2 48.1618 27.6077 11.2061 4.08069
511 2 24.9668 27.9499 11.4102 2.55504
583 2 29.8466 27.4887 11.6905 2.75656
655 2 20.3446 3.61216 10.5983 4.61549
727 2 24.7828 3.53067 10.7874 4.77678
799 2 43.7243 27.7156 10.9191 4.21384
5 1 8.72231 5.05826 9.10883 3.12424
6 1 11.287 6.3317 9.86279 3.09642
7 1 10.7643 6.10714 12.3857 1.22271
440 2 8.87778 5.13428 11.8265 4.06597
451 2 36.3152 7.66653 10.805 2.39584
77 1 14.0597 5.01639 8.52903 3.00724
78 1 15.748 6.5926 10.2477 2.4903
79 1 16.0546 6.6014 12.8503 0.921778
512 2 13.238 5.73288 11.8707 2.09967
523 2 13.4769 7.75038 10.3039 2.48496
149 1 18.1359 4.76788 8.91262 3.72514
150 1 20.4845 6.12896 9.79439 0.914522
151 1 20.5621 5.97958 12.5768 0.895042
584 2 17.86 4.96219 11.0941 5.25564
595 2 18.0249 7.48087 11.3365 4.47806
221 1 22.6254 4.40554 9.05433 2.6175
222 1 25.5912 6.24985 10.2444 3.22714
223 1 25.2431 6.28267 13.0004 2.75517
656 2 22.6707 5.32477 12.0652 5.57917
667 2 22.7601 7.09161 10.9101 2.39915
293 1 27.6892 4.81466 9.14664 2.11273
728 2 27.2304 4.51906 11.9763 5.0014
739 2 27.9352 8.03382 11.6679 2.8544
294 1 30.1472 6.03115 10.0775 2.43364
295 1 29.0736 6.27579 12.8352 1.57295
365 1 32.689 4.40526 9.31456 3.76662
800 2 31.8062 4.84474 11.9215 3.80762
811 2 31.6486 8.3755 11.2425 3.00952
366 1 33.7997 6.11766 10.4386 1.17304
367 1 34.5306 5.86826 12.7236 2.69591
17 1 11.1321 9.13614 8.76154 1.03148
452 2 11.1252 8.62799 11.2826 2.27015
463 2 38.5532 10.8722 11.0823 6.72383
18 1 13.139 10.5366 9.90643 3.43811
19 1 13.1002 10.5447 12.2556 2.91561
29 1 13.6505 13.8546 8.67243 3.68927
89 1 15.4246 8.96147 9.44828 1.21569
464 2 13.7887 13.0525 12.2049 2.63863
524 2 15.578 8.86961 12.0362 5.19024
535 2 16.2102 11.2786 11.0377 2.75375
90 1 17.9927 9.71708 9.85947 1.09476
91 1 17.7533 10.131 12.3831 3.65867
101 1 18.2398 12.8356 9.02785 2.77573
161 1 20.8517 8.40394 8.6055 3.12638
536 2 18.7725 13.524 11.7187 2.0766
596 2 20.4529 8.29344 11.5893 4.14576
607 2 20.3345 10.6984 11.512 2.39724
162 1 22.5638 10.3492 9.52711 2.9824
163 1 22.6617 10.3256 12.6157 2.73342
173 1 22.3975 13.0254 9.04002 3.42388
233 1 24.9376 9.09366 8.39219 1.40669
608 2 22.109 12.9401 11.7726 1.55621
668 2 25.0421 8.74172 11.6026 2.66321
679 2 24.6541 12.1974 11.2312 2.20612
234 1 26.7442 9.76253 10.0953 4.02516
235 1 27.5115 10.4859 13.4295 2.7188
245 1 27.0055 12.7216 9.38228 2.57353
680 2 27.1605 13.0633 12.1159 2.51253
305 1 30.0057 8.91488 9.23477 2.61377
306 1 31.6352 10.4255 10.3692 1.1446
307 1 32.1017 10.389 13.0902 2.41209
317 1 31.6137 12.8001 9.14727 2.16749
740 2 29.3832 9.25162 12.447 4.87132
751 2 29.0649 11.8915 11.3831 2.12151
752 2 31.9213 13.1621 12.3912 1.78963
377 1 34.2796 8.72142 9.14833 2.33895
378 1 36.5149 10.132 9.56914 2.43845
379 1 36.9799 10.4267 12.7722 3.02614
389 1 36.4557 13.1473 9.02508 2.81485
812 2 34.4534 9.12423 11.7076 1.72612
823 2 34.2086 12.0311 10.4664 2.15362
824 2 36.2732 13.1819 11.3604 2.55582
30 1 15.9371 14.3891 9.88484 2.41129
31 1 15.7017 14.5331 13.0058 2.62064
41 1 15.2911 16.7052 8.96883 1.00141
476 2 15.2213 17.1104 12.1867 2.08887
102 1 20.3856 14.5958 10.125 2.56411
103 1 20.6338 15.1449 13.8966 3.47118
113 1 20.068 16.9691 9.92099 1.27327
547 2 18.8384 16.1578 11.9161 2.95252
548 2 20.3996 17.0703 12.7384 4.88399
174 1 24.9768 14.3938 10.1997 2.52633
175 1 24.9631 14.5424 13.2786 2.11135
185 1 23.9228 16.6343 8.88671 4.6252
619 2 22.6027 16.2828 11.7533 1.95276
620 2 25.0957 17.2569 11.453 2.37012
691 2 26.7555 15.9349 11.0558 2.47702
246 1 29.2236 14.2996 10.0956 2.7349
247 1 29.8001 14.679 12.6011 2.95508
257 1 29.7024 17.4446 9.40666 1.26363
692 2 29.4552 17.1564 11.9723 5.36882
763 2 31.9749 15.0986 10.7103 2.22843
318 1 34.5827 14.8017 9.87392 2.92594
319 1 34.5077 14.6606 13.075 2.15897
329 1 34.1186 17.4711 9.09558 2.59296
764 2 34.7386 17.2189 11.9163 2.68198
835 2 37.5356 15.5527 10.9614 2.36928
390 1 39.1457 13.9999 9.96905 2.86712
391 1 38.9153 14.201 12.8285 2.57304
401 1 38.886 17.3642 9.41568 2.45108
475 2 13.7195 15.5685 11.0323 4.51418
836 2 39.0272 16.9683 12.0863 2.0227
42 1 17.6373 18.0521 10.3852 2.86294
43 1 17.5167 18.4063 12.9873 2.40748
53 1 17.9972 21.074 8.92249 2.48308
54 1 20.6055 22.4978 10.1895 2.42556
55 1 20.1878 21.7287 13.0859 1.3911
488 2 17.7438 20.7889 11.393 2.05402
559 2 19.4679 19.609 11.9881 3.73207
114 1 22.0787 18.5106 10.4097 2.92645
115 1 22.4562 18.9205 13.1428 2.85206
125 1 22.7782 20.5887 9.03757 2.86468
126 1 25.2582 22.2165 9.89123 3.26945
127 1 25.8891 21.7642 13.4597 4.89162
560 2 22.9693 20.7999 11.7944 2.55762
631 2 25.5381 20.2398 11.199 2.42821
186 1 27.234 18.5444 9.99332 2.90773
187 1 27.2463 18.3414 12.8726 1.22408
197 1 27.7672 20.7088 8.64561 1.38467
632 2 27.7418 21.0813 11.2565 2.39423
198 1 29.9007 22.2736 9.7279 2.45291
199 1 29.7538 22.3784 12.7625 1.03428
258 1 31.7515 18.1801 10.2218 1.28199
259 1 31.675 18.4047 12.7607 2.82367
269 1 32.2541 21.3616 9.17793 3.14688
703 2 29.9116 19.9359 10.8175 4.7042
704 2 32.4799 21.4066 11.5091 4.51217
270 1 34.2596 22.977 9.61277 1.32414
271 1 34.3284 22.9692 12.4573 1.36186
330 1 36.4821 18.512 9.94268 2.36949
331 1 36.6672 18.8637 13.4417 1.44498
341 1 36.8236 21.631 8.96715 2.70339
775 2 34.2029 19.1241 10.9262 3.03762
776 2 35.8492 20.9717 11.3799 2.48966
342 1 39.2983 22.6017 9.84161 3.12688
343 1 38.6371 22.2495 12.3629 3.00224
402 1 41.1638 18.3186 10.2657 1.84328
403 1 41.0697 18.4841 13.3507 2.9221
413 1 41.4162 21.178 9.6614 0.92003
847 2 39.3083 19.9528 11.1174 4.49626
848 2 41.3025 20.8936 12.5548 4.84879
414 1 43.6082 22.7135 10.2944 1.99036
415 1 43.5216 22.6773 12.6855 1.07027
487 2 43.3964 19.4312 11.3007 3.76299
65 1 20.5803 25.1343 9.27656 2.18157
500 2 20.5913 24.852 11.9491 4.09546
66 1 22.6286 26.4937 10.268 2.30608
67 1 22.5969 26.6529 13.2471 2.4597
137 1 24.9024 24.9411 9.56558 2.6388
571 2 23.1261 23.1893 11.0888 2.17447
572 2 25.2994 25.202 12.8995 2.00535
138 1 27.2 26.9752 9.94616 3.274
139 1 27.5859 27.121 12.5911 3.31367
643 2 27.6103 23.5832 10.9934 11.9887
209 1 29.6322 25.3724 9.22866 1.9841
210 1 32.1187 26.3756 10.0108 1.363
211 1 31.9494 26.6998 12.9032 2.52684
644 2 29.322 25.2295 13.3598 2.44671
715 2 31.6836 23.8306 10.4893 4.25701
281 1 34.1686 25.3153 8.72636 1.15893
282 1 36.4543 26.0078 10.2496 1.0584
283 1 36.2392 26.865 12.6597 3.26923
716 2 33.7957 24.9048 11.5068 5.33741
787 2 36.5461 23.7223 10.9417 4.15925
353 1 38.7476 25.4536 9.10725 1.0821
354 1 41.4775 26.3974 9.97101 0.765422
355 1 40.8849 26.3659 12.6853 1.03519
788 2 39.7528 25.0441 11.2538 5.22685
859 2 41.2328 23.6321 10.9759 4.13468
425 1 43.5667 25.2652 9.11429 0.954556
426 1 45.8057 26.2322 10.0135 0.911578
427 1 46.1616 26.2608 12.7121 1.01597
499 2 18.2486 23.8227 11.2581 2.63992
860 2 43.4963 25.6563 12.1993 4.43921
441 2 37.035 5.285 14.84 4.99424
442 2 11.3828 5.68415 15.8983 4.92694
8 1 13.3369 7.5666 13.6348 2.91729
9 1 13.4592 7.51679 16.7079 1.95351
513 2 13.7121 5.22394 14.5302 2.53458
514 2 16.1814 6.15721 16.2398 2.11671
80 1 18.4624 7.47616 13.4168 1.12806
81 1 18.2914 7.37198 16.3074 3.39998
585 2 17.828 5.04643 14.1803 4.0282
586 2 20.4872 6.25046 15.7258 2.91405
152 1 22.7799 7.25231 13.494 2.67951
153 1 22.929 7.43657 16.5588 2.71388
657 2 37.3774 29.1161 14.9128 4.41881
658 2 25.1835 5.89503 16.6029 5.97079
224 1 27.7149 7.75356 14.381 2.92519
225 1 27.3556 7.91866 17.1744 1.97822
729 2 26.9246 5.57046 15.0402 4.40385
296 1 31.3807 7.79758 14.0673 2.78168
297 1 32.0887 7.20002 16.7093 2.90047
730 2 29.3376 6.45235 15.696 4.82482
801 2 31.623 4.83062 14.2104 2.20814
368 1 36.5384 7.35584 13.8651 1.14223
369 1 36.8932 7.27554 16.3378 1.25022
802 2 34.2098 6.51631 15.475 2.49662
453 2 10.854 8.42092 14.205 2.55752
10 1 15.8532 8.99902 17.4842 2.40875
20 1 15.9225 11.8102 13.8572 2.67976
21 1 15.6138 11.4199 16.7699 2.69114
454 2 13.8299 10.3284 14.7199 1.99041
525 2 15.2476 8.53402 14.9331 2.15292
22 1 18.0881 12.6998 17.7891 2.24314
82 1 19.8836 8.90595 17.6427 2.78186
92 1 20.3002 12.1594 13.899 2.79879
93 1 20.473 11.238 16.3112 3.18737
526 2 17.4122 9.61956 15.1485 2.41906
537 2 17.9747 13.0492 14.44 2.85174
597 2 20.7349 9.23852 13.8726 2.73548
94 1 22.8972 13.1522 17.9874 0.908223
154 1 25.1207 9.54962 17.519 3.18512
164 1 25.0952 11.8299 13.9169 3.06811
165 1 24.9933 12.2629 16.8038 1.17678
598 2 22.9857 10.2123 15.9935 2.48866
609 2 22.9797 13.2545 15.1319 4.36285
669 2 24.4364 8.9002 14.9822 2.96975
166 1 27.4452 12.7679 17.8373 1.07868
670 2 27.5442 10.3865 16.5786 4.5707
681 2 26.9167 12.8972 15.225 4.31791
226 1 29.6647 9.37888 18.2657 3.17585
236 1 29.7485 11.7811 14.3432 2.56482
237 1 29.7252 11.7188 17.0192 1.21723
238 1 32.2358 12.5207 17.6683 1.06999
741 2 29.4539 9.51958 15.5469 2.50196
742 2 32.8188 9.06906 15.9367 3.27825
753 2 31.8223 13.2629 15.3519 2.89805
298 1 34.7411 9.02405 17.669 3.16027
308 1 34.3752 11.6285 13.2753 2.80372
309 1 34.1322 11.4154 16.3634 2.02601
310 1 37.1118 13.277 17.4678 3.06438
813 2 34.9604 9.36158 14.246 2.6745
814 2 37.1131 10.5422 15.3594 1.933
825 2 36.3543 12.9263 14.3249 1.90801
370 1 39.1286 8.897 17.058 2.76049
380 1 39.0949 11.8408 13.5184 1.01786
381 1 39.0444 11.9734 16.5587 2.96022
382 1 40.9432 13.2818 18.0609 2.90956
465 2 40.7965 13.2007 14.9494 1.925
466 2 15.8826 14.0613 15.9281 2.574
32 1 18.2111 15.8878 14.5379 2.63833
33 1 18.5414 15.1907 17.0178 0.962676
34 1 20.1377 16.771 18.2427 1.22232
538 2 20.6437 14.1752 16.3719 4.44926
549 2 20.484 16.7173 15.9156 5.1715
104 1 22.9221 15.6765 14.9899 3.13943
105 1 22.6087 15.6801 17.6335 1.10273
106 1 25.1356 16.6624 17.9635 3.19039
610 2 25.0922 14.9428 16.4652 4.98384
621 2 25.0706 17.0672 13.406 3.09172
176 1 27.6496 15.6817 13.8207 2.29088
177 1 27.587 15.1823 16.6445 2.98093
178 1 29.6934 17.5079 17.9864 3.53663
248 1 32.255 15.7158 13.7379 2.28662
249 1 32.3952 15.3707 16.7995 2.89911
682 2 29.6925 14.4572 15.3266 2.36108
693 2 29.6087 17.5081 14.6401 1.98448
250 1 34.3415 17.1276 17.1338 2.81343
320 1 37.1245 16.0686 13.7255 2.89718
321 1 36.9645 16.2744 16.9458 2.92744
754 2 34.325 13.8279 15.6385 2.46237
765 2 34.3561 17.1575 14.4739 2.39513
322 1 39.3604 16.9721 17.6793 1.36589
392 1 41.3166 15.8184 13.8807 1.59687
393 1 41.1333 15.731 16.7948 2.56237
826 2 38.3765 14.5789 15.572 3.213
837 2 39.0673 17.5769 14.5884 4.91225
394 1 43.5686 17.2193 17.7365 2.71093
477 2 15.781 16.8801 14.5969 2.1804
44 1 20.4234 19.8398 14.3349 1.26667
45 1 20.3639 19.5796 16.9372 2.64122
478 2 18.3082 18.1906 16.2403 2.69885
490 2 20.47 22.5388 15.9282 2.16498
46 1 22.6936 20.5974 17.4584 2.22716
116 1 25.0714 19.5087 14.0146 2.5593
117 1 25.4939 19.4055 17.2417 2.8916
550 2 22.8552 18.2584 16.0346 2.76226
561 2 22.844 21.5449 14.3334 2.52741
562 2 25.0905 22.0289 15.6052 2.60774
118 1 27.7894 20.9932 17.7752 3.59568
622 2 27.1237 17.4589 15.9607 2.36336
633 2 27.5041 20.575 14.8945 2.92417
188 1 29.5716 19.6986 13.1681 1.06208
189 1 29.9893 19.6618 16.4086 2.6367
190 1 31.9126 21.1951 17.6474 0.947377
634 2 29.8 22.6416 15.3277 2.28136
694 2 32.2617 18.6899 15.9059 4.91962
705 2 31.931 20.8373 15.0268 4.46303
260 1 34.2557 20.1305 13.9062 1.28884
261 1 34.194 20.1124 16.3699 1.20256
262 1 36.1395 21.0194 16.9765 3.75008
706 2 33.998 22.4697 15.1962 4.23303
766 2 36.0369 18.6736 15.7504 5.44803
777 2 36.4459 21.2704 14.4123 5.71388
332 1 38.7579 20.0487 13.8584 1.14525
333 1 38.7641 19.6528 16.6224 2.59286
334 1 41.2898 21.216 17.465 2.26727
778 2 39.2223 22.0292 15.1953 2.67736
838 2 41.7432 18.6732 16.1489 2.0522
849 2 41.1793 20.5681 14.7408 4.05957
404 1 43.6866 20.2513 14.001 1.07803
405 1 44.3562 20.1829 16.5335 3.72441
406 1 46.0232 21.64 17.9128 1.07645
489 2 45.564 21.2169 14.4495 3.83034
850 2 43.1498 22.2125 16.0337 4.72374
56 1 22.7679 23.8312 13.7323 3.96028
57 1 22.9223 23.2432 17.1235 1.80266
58 1 25.2872 24.8857 18.2723 1.23311
502 2 22.8818 26.4161 16.1097 2.16756
573 2 25.1686 24.1802 15.3776 1.9905
128 1 27.434 23.5313 14.3566 2.75055
129 1 27.7677 23.8953 17.1075 1.03135
574 2 27.2898 26.4707 15.6866 2.57914
130 1 29.9624 24.7924 17.61 1.10173
200 1 31.8337 23.7452 13.154 2.77815
201 1 32.1961 23.4207 16.7004 0.896746
645 2 30.7558 25.0942 15.0828 2.4972
646 2 32.5202 26.6944 15.7179 2.24962
202 1 34.3867 24.7727 17.9673 2.95481
272 1 36.3276 23.7838 13.8224 2.22636
273 1 36.4242 23.786 16.399 2.4918
717 2 33.995 24.5759 14.8122 2.26367
718 2 36.0403 26.2241 14.7561 4.82047
274 1 38.6971 25.4228 17.3615 2.88497
344 1 41.3436 23.6921 13.7188 2.31641
345 1 40.8916 23.673 16.0052 2.99461
789 2 38.0836 25.4364 12.841 3.27859
790 2 41.8837 26.5024 14.9088 3.27159
346 1 43.3802 25.0131 17.5127 3.01062
416 1 46.0785 23.7948 14.0865 3.07051
417 1 45.6716 23.7547 16.7442 0.961961
861 2 43.8006 24.7772 14.8578 1.95933
862 2 45.7269 26.421 15.2722 4.28792
418 1 48.5149 24.5632 17.7543 2.53528
501 2 20.6083 25.1968 14.8589 2.77198
68 1 24.7316 27.6983 14.2969 3.17603
69 1 25.0604 27.2668 17.06 1.00172
70 1 27.3816 28.6786 17.4259 2.0075
140 1 29.7972 28.3306 14.2817 1.20485
141 1 30.0444 27.5605 16.7644 0.765212
142 1 32.2248 28.8797 17.7682 1.05374
212 1 34.0589 27.7186 13.8762 2.7151
213 1 34.4403 28.1838 16.7467 2.85927
214 1 36.9184 29.2544 17.5359 1.20418
284 1 38.9783 27.768 13.4971 0.987999
285 1 39.1101 27.7492 16.3297 3.26925
286 1 40.9593 28.9706 17.6387 3.38823
356 1 43.3284 27.7665 13.7249 2.56438
357 1 43.6866 28.2809 16.1791 2.84372
358 1 45.7309 28.9005 17.2085 1.25549
428 1 48.0109 27.3962 14.0271 2.94941
429 1 48.3093 27.3822 16.7465 3.05657
430 1 51.0337 29.2462 17.7458 2.86609
443 2 25.4988 30.4296 18.0912 4.63804
444 2 13.4874 7.68317 19.2517 2.38811
515 2 15.8694 7.0212 19.2567 3.09623
516 2 17.9079 7.6822 19.7999 1.68275
587 2 34.3426 30.3554 18.5905 3.67184
588 2 22.3644 7.44976 19.2395 1.84234
659 2 25.3779 6.65178 18.8497 2.34279
660 2 27.9582 7.84423 20.3 2.40065
721 2 18.4102 0.404715 -0.119114 3.94704
731 2 43.4618 30.1492 18.4572 1.94404
732 2 31.6922 7.28999 19.2137 2.34761
793 2 36.6728 7.78727 21.514 3.04778
803 2 34.6855 6.31681 17.9532 2.09109
804 2 36.4449 7.79322 19.0576 4.88196
11 1 15.7256 9.26393 20.6712 2.53571
455 2 13.4852 10.4075 18.0848 2.55695
456 2 15.7142 12.3729 19.4894 2.19849
12 1 17.8787 10.344 21.3095 2.73813
23 1 18.2512 13.193 20.2988 1.01678
83 1 20.3334 9.21831 20.2916 2.50783
527 2 17.8444 10.2426 18.2682 4.9649
528 2 19.9233 11.6742 19.6135 4.62599
84 1 23.1237 10.1584 21.1149 3.1964
95 1 22.5273 12.5388 20.6606 0.92592
155 1 25.1667 8.92034 19.9445 3.25674
599 2 22.495 10.4222 18.4251 2.15611
600 2 24.9796 11.6175 20.0936 4.34515
156 1 27.4381 9.62338 21.864 3.49999
167 1 27.288 12.9705 20.6748 3.12077
671 2 27.0497 10.4162 19.1082 4.72597
227 1 30.5694 8.89529 20.8504 1.07512
228 1 32.2649 10.6346 21.5641 2.91372
239 1 32.5185 13.1714 20.4086 3.07796
672 2 29.621 11.9617 19.8263 2.16172
743 2 32.7345 9.85418 18.5617 2.71661
299 1 34.5052 9.36383 20.4196 1.19636
300 1 36.7609 10.6981 20.9347 0.889716
311 1 36.7491 13.2282 20.5036 2.85755
733 2 34.2963 12.0285 21.8072 4.32319
744 2 34.5881 11.9749 19.526 4.49854
815 2 36.6838 10.3765 18.4009 2.60729
371 1 38.7718 8.73025 20.1363 3.25372
372 1 41.3816 10.8219 21.6741 2.91485
383 1 41.3818 13.2654 21.0769 1.03304
805 2 38.6426 12.0733 22.3865 1.85527
816 2 39.1818 12.4742 19.6379 2.40206
24 1 20.4277 13.8248 21.4836 2.66519
35 1 20.3009 17.0732 20.7333 0.807453
468 2 18.2605 16.1409 19.7381 4.41167
539 2 20.88 14.4142 19.0016 4.39236
96 1 24.6293 14.8131 21.8194 3.54084
107 1 24.848 16.9752 20.4202 1.20151
540 2 22.8779 15.2791 20.1554 4.23949
611 2 25.3951 13.3574 19.1119 4.61027
612 2 27.171 15.6538 19.6368 2.36142
168 1 30.0403 14.2866 21.1758 3.14403
179 1 29.3034 17.1064 20.5763 1.15038
683 2 29.9826 14.3118 18.7825 2.58338
684 2 31.9114 16.1722 19.4594 4.03752
240 1 34.5631 14.8137 21.7428 2.55312
251 1 33.7083 17.3713 20.4141 3.74648
745 2 23.38 7.65927 -0.29651 4.69099
755 2 33.9216 14.2085 18.543 2.35351
756 2 36.1454 15.5847 19.6584 2.51573
312 1 39.5795 14.8819 21.8028 1.30474
323 1 39.0317 17.0752 20.3584 2.05855
817 2 42.2896 15.4901 22.0192 2.6762
827 2 39.3749 14.7449 19.5507 4.54221
828 2 41.469 15.9854 19.2064 4.55252
384 1 44.4034 14.3834 21.7288 3.48572
395 1 43.792 17.3764 20.1406 0.895291
467 2 43.9085 15.0143 18.5045 2.68045
480 2 21.2276 19.1636 19.3679 5.74061
36 1 22.7756 18.2359 21.1285 1.10002
47 1 22.6867 21.3084 20.5216 2.68234
48 1 25.1712 21.4547 21.5724 1.28119
551 2 23.1517 17.936 18.7365 4.14634
552 2 24.9644 19.9736 19.542 3.97235
563 2 26.1105 21.9179 18.1504 8.50906
108 1 27.413 18.8497 21.5653 3.06754
119 1 27.7728 21.2409 20.7519 0.905413
623 2 27.1604 18.209 18.9617 3.47076
120 1 29.9922 22.2986 21.5848 0.929147
180 1 31.3553 18.5052 20.8327 1.1124
191 1 32.002 20.9397 20.7101 0.953685
624 2 29.9994 19.6246 18.916 5.00922
635 2 29.8308 22.9149 18.8747 4.09761
695 2 32.1468 18.257 18.4353 4.00814
192 1 34.5537 21.8873 21.2128 1.21615
252 1 36.7081 18.1131 21.4024 1.12509
263 1 36.9479 20.7767 20.7539 2.59883
696 2 34.1605 20.0661 19.3662 2.29803
707 2 34.4245 22.207 17.6258 4.91696
767 2 35.9931 18.8134 18.6517 2.51747
264 1 39.1344 22.6092 21.092 1.14568
324 1 41.8075 18.6373 21.2784 2.58936
335 1 41.2944 21.4716 20.3698 0.908177
757 2 39.2851 20.0186 21.9646 1.55022
768 2 39.2402 19.832 19.497 2.22334
779 2 38.5271 22.7229 18.5756 2.32089
839 2 41.4375 18.5412 18.4524 2.75706
336 1 43.4972 22.752 21.3523 2.34823
396 1 45.9504 18.5982 21.4176 0.82554
407 1 46.0074 21.0685 20.6971 1.21827
479 2 18.673 18.7941 19.2117 4.66145
829 2 29.9516 12.417 -0.403236 2.20782
840 2 43.961 20.3822 19.6611 4.82713
851 2 43.6634 22.2929 18.7286 2.48325
408 1 48.3212 22.4353 22.0992 3.44973
491 2 20.8571 22.0694 18.7495 5.54495
59 1 24.9932 24.0814 20.9178 3.75995
492 2 22.6665 24.0643 19.498 2.91733
503 2 23.0335 26.6302 18.5918 2.14485
60 1 27.2737 26.0008 21.1052 2.98445
564 2 27.292 23.6582 19.4937 3.70498
575 2 27.9381 26.1344 18.487 3.91975
131 1 30.0573 25.2759 20.3827 2.42489
132 1 32.3491 26.336 21.6766 2.23749
636 2 32.4704 22.8582 19.1812 6.0031
647 2 32.1587 26.3542 18.563 3.50819
203 1 34.3515 24.925 20.5849 1.03318
204 1 36.5101 26.2689 20.9858 1.11032
708 2 36.4133 23.7081 19.5587 3.94054
719 2 36.7928 26.8413 18.5646 4.5672
275 1 38.4153 25.0905 20.0003 1.37055
276 1 41.1678 26.3633 21.2099 2.20697
769 2 40.9549 23.6451 21.9833 3.10948
780 2 40.8245 23.9953 19.3255 1.92081
791 2 41.1643 26.5729 17.9772 2.41287
347 1 43.4762 25.1833 20.6021 2.68238
348 1 46.2157 26.5132 21.2928 2.36072
841 2 46.0976 23.3516 22.2043 3.16811
852 2 46.3443 23.8937 19.4983 2.25393
863 2 46.3445 26.0294 17.7102 2.6273
419 1 48.4525 25.1807 20.6147 2.59376
420 1 51.0423 26.3062 21.5331 3.25614
504 2 25.6758 27.4463 19.576 4.00415
71 1 27.6805 28.7559 20.303 2.28793
72 1 29.8038 30.3063 21.53 2.38415
143 1 32.563 28.9316 20.2578 1.07603
576 2 30.4003 28.2198 19.1863 2.7534
144 1 34.2571 30.6961 21.2718 2.55235
215 1 37.1588 29.0383 20.025 3.40249
648 2 34.6166 27.3759 19.6349 2.64898
216 1 39.8402 30.5483 21.5631 2.60332
287 1 41.892 29.2664 20.6189 2.85311
720 2 39.1688 27.8784 19.6472 2.44237
288 1 44.4521 30.8183 21.7635 1.24327
359 1 45.1637 28.9947 20.2436 3.54165
781 2 43.6821 27.6538 22.0472 2.58757
792 2 43.4865 27.5963 19.3851 3.1475
360 1 48.3518 31.1137 21.1452 3.48935
431 1 50.4784 29.2278 20.2876 3.09722
853 2 48.5 27.8851 22.3702 11.4967
864 2 47.4441 28.3481 19.6549 2.01326
432 1 53.1565 30.3669 21.1188 2.62606
ITEM: TIMESTEP
275
ITEM: NUMBER OF ATOMS
864
ITEM: BOX BOUNDS xy xz yz pp pp pp
-5.4477272479098482e-01 5.5602330399971649e+01 1.4068314632361453e+01
-5.1169409980688174e-01 3.1958060444624600e+01 1.4034320683161265e+01
-4.5467388052792362e-01 2.2463275826360974e+01 8.1027188243167050e+00
ITEM: ATOMS id type x y z f_grace_gamma
433 2 41.0683 7.778 22.2046 2.70416
434 2 1.47628 0.0840119 0.444941 2.12101
435 2 2.42941 0.861481 3.42507 2.20355
445 2 1.89697 3.51719 -0.187549 2.86201
1 1 4.33221 1.63477 1.13825 3.31946
2 1 6.78601 4.03049 2.56815 2.82928
505 2 18.2221 7.70398 22.3227 2.77847
506 2 7.22968 0.264754 0.111972 2.41421
507 2 6.70708 1.48277 3.30123 2.32748
517 2 6.91113 3.17716 -0.12393 2.21353
73 1 8.91442 2.41928 1.78548 3.10838
74 1 11.4177 2.84953 2.87061 3.92013
577 2 37.2133 31.517 22.3386 2.4967
578 2 11.3955 1.17827 0.218997 2.43432
579 2 25.0031 24.7535 3.42295 2.33467
589 2 10.8398 3.86747 0.202746 1.71434
145 1 13.5328 1.5539 1.50975 3.3824
146 1 15.7065 3.28894 2.58901 2.36432
649 2 27.7202 23.8507 0.255437 4.9634
650 2 16.6032 0.893853 0.685896 2.68897
651 2 15.8574 1.11008 3.46166 4.12778
661 2 15.6238 3.49335 -0.425002 2.02889
217 1 18.501 2.19454 1.47781 3.21534
218 1 20.6342 3.79204 2.5528 0.866401
722 2 21.1265 1.4905 -0.08392 2.28871
723 2 20.4512 0.845849 2.42893 4.42394
289 1 22.7417 2.54321 1.43049 2.53722
290 1 25.2461 3.60158 2.20475 2.51582
794 2 25.0909 0.758894 -0.287995 2.49044
795 2 39.8746 25.0678 3.3504 4.93862
361 1 27.2779 2.18497 1.51366 2.9059
362 1 30.7946 3.54592 2.85734 4.09854
13 1 6.49884 6.5941 1.6961 1.057
446 2 4.52675 4.27943 0.586457 2.38072
447 2 4.7252 4.9191 3.76796 4.71181
457 2 32.5329 8.02269 0.00919784 4.60284
14 1 9.03934 7.68559 2.17151 0.975156
85 1 11.3518 6.26171 1.55539 2.5425
518 2 8.2907 5.55619 0.361555 1.87068
519 2 9.56358 4.7792 2.86152 2.27577
529 2 7.52312 7.69671 -0.285871 4.09135
86 1 13.5425 7.84353 2.28401 2.45858
157 1 15.1317 6.26435 1.14582 3.24527
590 2 12.8756 4.31812 1.01479 2.98778
591 2 13.2726 3.94524 3.36805 5.71544
601 2 13.2772 7.34623 -0.497982 4.20895
158 1 18.1554 7.38706 2.27132 2.72537
229 1 20.5479 6.05945 1.79225 1.16542
662 2 17.887 5.71051 0.171671 1.9152
663 2 17.8377 4.64121 3.1742 5.51336
673 2 31.9632 16.5683 22.3452 2.54032
230 1 22.6339 7.2686 2.01686 0.967192
301 1 24.8804 6.38066 1.58272 1.02328
734 2 22.7483 5.18251 0.511779 4.93901
735 2 22.7959 5.33751 3.43951 4.59503
302 1 27.7441 7.46402 1.60754 1.01938
806 2 27.502 5.12555 0.802654 5.16086
807 2 27.118 5.10141 3.14707 2.10496
373 1 29.7276 6.74697 1.22544 1.02945
374 1 32.1917 7.26091 2.24963 0.950713
458 2 6.17596 10.0881 0.237597 5.80047
25 1 8.43693 9.9461 1.34017 0.899424
26 1 10.6192 10.9625 2.54817 3.16471
470 2 8.41507 12.6046 0.569088 1.9607
471 2 36.1022 11.9313 4.36652 1.69145
530 2 11.4355 9.29901 0.912732 4.87152
531 2 11.4941 8.83722 3.90918 5.34357
541 2 10.6599 11.3268 0.107779 4.55855
97 1 13.3789 10.5275 1.37673 2.85711
98 1 15.9036 11.6658 2.30717 1.35371
542 2 13.82 13.1936 0.112166 4.29629
543 2 12.8774 12.7142 3.04505 5.62615
602 2 15.7935 9.08131 1.50627 2.98354
603 2 15.7873 8.87624 3.65575 2.93064
613 2 30.2112 20.1012 22.4718 4.6283
169 1 17.8732 10.4768 1.15592 3.05419
170 1 20.2811 11.4315 2.19154 2.10086
614 2 18.045 12.9702 0.856343 4.0074
615 2 18.2469 12.83 3.55845 2.47107
674 2 20.3471 9.38849 0.699398 4.38703
675 2 20.3998 8.99379 3.94561 1.9313
685 2 34.9418 19.6336 22.1153 4.00305
241 1 22.4643 9.68182 1.08286 3.12929
242 1 25.0185 11.3821 2.55907 1.22078
686 2 23.3749 12.1689 0.790688 2.63289
687 2 22.2088 12.8997 3.3258 2.2387
746 2 25.1568 9.44736 0.0974033 4.60106
747 2 25.168 8.79834 2.32177 2.86259
313 1 27.6628 10.2993 1.61246 2.28107
758 2 26.8187 12.8607 1.21845 2.51853
759 2 27.9076 13.3653 3.6501 2.49221
314 1 29.8312 11.4218 2.63374 1.13659
385 1 32.0039 10.1089 1.34676 1.00164
818 2 30.0331 9.38973 0.0806789 4.47898
819 2 29.9156 9.05736 2.84788 4.5911
830 2 32.2471 13.2073 0.84014 2.37359
831 2 32.2069 12.6593 3.19662 3.86619
386 1 34.5289 11.7542 2.24301 1.01524
459 2 6.59484 8.93568 3.49918 2.87022
469 2 20.5353 20.2031 21.4591 2.40171
37 1 11.1106 13.4176 1.5629 3.85171
482 2 11.4997 16.6222 1.0808 3.04587
38 1 13.3428 15.0905 2.54421 3.05732
109 1 15.6786 14.4529 1.43564 1.05139
553 2 13.1925 15.974 -0.0893851 2.4433
554 2 16.1433 16.7664 0.820586 1.95623
555 2 16.0454 17.1035 3.60478 2.6406
110 1 18.459 15.1784 2.03882 3.58245
181 1 20.524 14.0952 1.0608 1.30681
625 2 32.5739 23.3997 22.001 4.4428
626 2 20.5819 16.872 0.283715 4.1453
627 2 20.3286 16.9535 3.44418 2.01516
182 1 22.5754 16.1672 2.24802 3.03503
253 1 24.6812 14.0591 1.41126 3.41542
697 2 36.2735 23.3861 22.4547 4.26039
698 2 24.643 16.4276 0.476523 2.88039
699 2 24.8893 16.7409 3.64918 2.76564
254 1 27.0888 15.5964 2.71941 2.84062
325 1 29.6446 14.4826 1.72499 2.11095
326 1 31.9455 15.9245 2.64662 2.90469
770 2 30.461 16.7686 0.598623 2.11381
771 2 29.662 16.6442 4.09876 2.78305
397 1 34.2361 14.5067 2.0599 1.15591
398 1 36.6802 15.4185 2.77605 2.67017
481 2 36.9543 16.1828 0.0557314 1.99722
842 2 33.85 17.2157 0.0577941 5.39206
843 2 34.4851 17.5988 2.78049 2.14465
483 2 39.2585 17.4786 3.28477 2.56623
493 2 11.5803 19.396 -0.22003 2.68464
49 1 13.2395 18.5192 1.21966 2.79017
50 1 15.8831 19.4742 2.25816 2.16648
61 1 16.2836 22.1578 1.72646 2.71275
494 2 13.5236 21.0314 0.145965 2.73911
495 2 13.7866 21.2073 3.69853 2.45116
565 2 30.2845 27.7585 21.9693 2.28418
121 1 18.2548 18.5385 1.70551 2.33872
122 1 20.4474 19.6905 2.3454 0.997358
133 1 20.7082 22.2705 1.92377 3.0906
566 2 18.6875 21.0432 0.410059 4.27846
567 2 18.1392 20.9794 3.39358 4.66072
637 2 35.3366 28.642 21.6602 2.54153
193 1 22.405 18.713 0.873098 1.24856
194 1 24.5534 19.4353 1.94998 3.1904
205 1 25.1804 22.2208 1.65692 2.83489
638 2 22.9179 21.2218 0.629051 2.73288
639 2 22.8435 20.7856 3.27795 4.6307
709 2 38.3828 27.6568 21.859 2.58465
265 1 26.8523 17.9991 1.04859 4.00371
710 2 27.6069 20.033 0.24087 2.56457
711 2 27.4794 21.0133 2.77368 2.7621
266 1 29.9168 19.2431 2.33754 2.68193
277 1 29.688 22.0276 1.55286 0.896082
337 1 32.5443 18.6715 1.22697 2.96296
782 2 32.4477 21.4226 0.445474 2.54016
783 2 31.7706 21.0165 2.85438 3.95386
338 1 34.5697 20.1547 2.67008 2.7815
349 1 34.6115 22.8864 1.40083 2.35485
409 1 37.1357 18.714 1.75246 2.57763
854 2 36.5821 21.6561 0.0960945 3.2066
855 2 37.4209 21.9276 3.95341 3.71581
410 1 39.3422 19.7094 2.41197 1.17434
421 1 39.1962 22.3497 1.01873 2.98971
62 1 18.2921 23.3848 2.16331 1.25237
134 1 22.6472 23.955 2.48083 2.49633
206 1 27.9921 23.3055 3.22687 3.11521
278 1 32.0556 23.191 2.2181 3.42619
350 1 37.1885 24.1848 1.98717 2.44345
422 1 41.4881 23.5333 2.87887 3.54013
3 1 7.09132 3.94215 5.21054 0.929289
436 2 4.39268 2.31384 4.6321 2.12149
437 2 46.2251 26.7015 7.6412 4.75358
438 2 6.3911 3.08986 7.65348 4.55401
75 1 11.7851 3.30292 5.48147 1.22187
508 2 9.18137 2.37112 4.13615 5.57685
509 2 8.86458 2.34808 6.939 2.70376
510 2 10.6589 3.78674 8.09078 2.59755
147 1 16.3323 3.81723 4.96329 1.18434
580 2 13.7097 2.09152 4.34952 3.53781
581 2 13.0087 2.82717 7.50153 5.02628
582 2 16.1143 3.32568 8.10152 5.5583
219 1 20.8267 4.24787 5.37512 2.9374
652 2 19.171 2.15137 4.41495 3.65855
653 2 32.3885 26.3866 7.5366 1.83727
654 2 20.6177 3.64094 8.00824 4.10199
291 1 25.5423 3.32028 5.09375 2.85193
724 2 22.4813 2.36517 4.2454 4.75185
725 2 23.2892 2.42005 7.24522 3.51255
726 2 25.6669 3.67712 8.13816 2.06484
796 2 27.9374 2.85606 4.64748 2.78771
797 2 27.8614 2.34416 6.78276 2.73531
363 1 30.4523 3.83007 5.5833 1.16644
798 2 30.3189 3.57115 8.811 5.96143
448 2 6.21739 6.45026 4.22872 4.26986
449 2 7.41416 6.3305 7.03121 2.20021
4 1 9.35514 4.7103 6.17776 2.5508
15 1 9.17005 7.50543 5.01829 3.17661
450 2 9.75698 7.23098 8.03578 1.92939
520 2 11.385 5.70208 4.21723 2.62666
521 2 11.7845 5.90565 6.9063 2.09072
76 1 13.8065 4.85043 5.58756 1.13056
87 1 13.5654 7.64922 5.37106 2.92332
522 2 13.4986 8.15803 8.26828 4.18395
592 2 15.2833 6.07396 3.90857 4.24996
593 2 15.6198 6.76157 6.29798 3.01586
148 1 18.1391 5.01773 5.94513 0.984107
159 1 17.7342 7.78275 4.74912 0.998996
594 2 18.4849 7.30719 8.21876 4.48658
664 2 19.8993 6.66775 4.16489 5.3979
665 2 20.7163 5.90108 7.22523 4.63918
220 1 22.7289 5.1687 6.51158 3.34414
231 1 22.3932 7.6222 5.02027 2.88776
666 2 23.3733 7.03952 8.79341 1.95467
736 2 25.3677 6.29754 4.28153 2.55077
737 2 25.6778 6.3966 7.16864 1.68911
292 1 27.9543 4.82478 6.39161 2.57126
303 1 27.2432 7.84405 5.17176 2.75352
738 2 27.8488 8.22602 7.56098 3.14663
364 1 32.8037 5.1114 6.30785 2.59546
375 1 31.9846 7.5803 5.25638 2.78986
808 2 30.1237 6.75974 3.35101 9.20202
809 2 29.9585 6.35766 7.18331 2.23307
810 2 32.3462 7.03637 8.05648 2.84477
16 1 11.7422 9.01443 6.2234 2.60092
27 1 11.2404 11.8982 5.12906 0.99225
460 2 8.77905 9.82016 4.88722 2.83101
462 2 11.6535 11.5707 7.92396 2.24534
28 1 13.368 13.0459 5.61021 0.9429
88 1 16.2918 9.34867 6.68837 2.91535
99 1 15.6943 12.0372 5.2516 2.24013
532 2 13.8076 10.388 4.0247 2.48501
533 2 13.8522 11.1493 6.8331 2.86139
534 2 15.494 11.7492 8.54016 2.19701
100 1 18.5584 13.3511 6.49937 1.07589
160 1 19.4424 8.9991 6.33693 2.64694
171 1 20.4475 11.7606 5.50271 2.39929
604 2 17.5693 10.1155 3.98604 2.58528
605 2 17.7629 11.2559 6.84447 5.69893
606 2 19.9943 10.8974 8.32369 2.85463
172 1 22.4394 12.7536 6.32033 2.71502
232 1 24.729 8.80785 5.08858 3.44724
243 1 25.0386 11.7105 5.04931 2.74804
676 2 22.9473 10.417 4.35327 2.61561
677 2 22.445 9.65894 6.8184 4.72417
678 2 24.8684 12.0435 8.14897 2.7941
244 1 27.6852 12.8252 6.38164 3.53908
748 2 27.5752 10.4576 4.35026 5.21716
749 2 26.8008 10.3492 6.79169 4.48621
304 1 29.4678 8.92474 5.74316 2.91507
315 1 30.2422 11.4294 5.31203 3.00587
316 1 33.0143 12.9129 6.59309 1.37333
750 2 28.9001 11.5479 7.97822 3.04761
820 2 31.7319 9.86535 3.9892 5.04872
821 2 32.3589 10.2702 8.0522 2.89459
376 1 34.1523 8.65412 6.49613 2.94995
387 1 33.5368 11.3999 4.67874 3.77837
388 1 37.1967 13.593 6.43276 1.22201
461 2 36.9592 11.2945 6.89323 2.53018
822 2 35.0474 10.9959 7.76574 2.59662
472 2 11.2853 14.8202 4.01326 4.74017
39 1 13.5715 15.9131 5.62168 2.71124
40 1 15.7738 17.0666 6.30351 1.15406
474 2 12.9307 16.4999 8.25518 5.54388
544 2 16.3471 14.3903 3.8916 2.40957
545 2 15.8659 14.5949 7.31808 4.93815
111 1 17.9023 15.6144 5.81903 3.17786
112 1 20.3146 17.7738 6.17455 3.64704
546 2 18.1662 16.2524 8.97085 3.30491
616 2 19.7234 14.3246 4.57137 2.9104
617 2 20.409 15.0947 7.26248 2.5084
183 1 23.006 15.8184 5.60051 3.17982
184 1 25.3731 16.5933 6.47363 3.10518
618 2 22.7978 14.7995 7.95707 5.37871
688 2 25.2866 14.3974 4.27677 2.5483
689 2 25.01 14.1924 7.39697 2.53807
255 1 27.6576 14.9793 5.63825 1.69106
690 2 27.6922 15.4717 8.35396 2.35312
256 1 30.4521 16.054 6.64166 4.05767
327 1 32.7358 15.4402 5.28139 1.31399
760 2 30.491 14.4595 4.4813 2.73125
761 2 29.7943 13.7956 7.31236 3.15195
762 2 33.1496 15.17 8.20886 2.57232
328 1 35.2222 17.3568 5.85462 3.13125
399 1 37.5138 15.7724 5.51785 1.00033
832 2 35.0047 14.7272 4.63665 5.0568
833 2 35.3972 15.3366 7.36431 2.32539
834 2 38.0095 15.2683 8.345 5.12621
400 1 39.4331 17.4464 6.39686 1.13461
473 2 11.5259 14.5845 6.60042 4.46011
51 1 15.8544 19.8974 5.41418 2.39532
484 2 13.8109 18.5109 5.17681 2.27945
486 2 15.6206 19.8456 8.63656 1.94343
496 2 16.1198 23.0727 4.84146 2.48579
52 1 18.1171 20.9827 6.05858 1.11496
123 1 20.5155 19.9475 5.23628 1.12527
556 2 18.0965 18.4316 4.66278 2.43301
557 2 17.8265 18.2358 7.24114 2.30721
558 2 20.4407 19.368 8.48063 2.7325
568 2 21.0342 22.8411 5.40038 3.12511
569 2 20.3516 22.3377 7.75809 2.35836
124 1 22.9267 21.1175 6.44857 2.63649
195 1 25.1018 20.0056 4.81623 2.84244
628 2 22.8497 18.1271 4.69198 2.85156
629 2 23.8466 18.6105 7.44678 3.95002
630 2 25.5201 19.3516 7.78433 2.8248
640 2 25.3751 22.6938 4.36766 2.37453
641 2 25.7719 22.2981 6.76665 1.86465
196 1 27.7814 20.6845 5.9929 2.76038
700 2 27.6481 18.1125 4.35546 1.87414
701 2 28.2035 18.2243 7.24938 1.82694
267 1 30.4913 19.7109 5.23541 3.52548
268 1 32.5356 20.7765 5.97462 3.09436
702 2 31.2564 19.4156 7.35591 3.53466
712 2 29.723 22.7999 4.8232 2.70956
713 2 29.5816 22.4526 7.15555 2.66032
772 2 32.1989 18.0242 4.25969 2.56719
773 2 32.965 17.6413 6.9489 2.57772
339 1 35.2386 19.9483 5.28751 2.84627
340 1 37.2843 21.6555 6.43683 2.57962
774 2 34.4304 20.6807 7.93051 5.2791
784 2 34.8715 23.3034 4.19331 2.90076
785 2 34.5644 22.9074 6.67723 2.5677
844 2 37.1669 18.372 4.64193 5.25697
845 2 36.3044 19.0525 7.43878 2.43146
411 1 39.6375 19.8841 5.33326 2.45269
412 1 41.2846 21.1326 6.747 3.12338
485 2 41.5469 18.5081 7.91878 2.57129
846 2 38.6204 19.7538 8.48126 2.38405
856 2 40.1768 22.4914 5.06574 3.29851
857 2 38.6417 23.1138 7.76788 5.86866
497 2 43.6457 22.1512 7.70217 1.84491
63 1 18.4648 23.49 5.04406 2.58921
64 1 20.8032 25.2133 6.36807 2.21049
498 2 18.4679 23.8874 7.92892 4.17786
135 1 23.0753 24.0974 5.02843 2.95866
136 1 25.0403 25.4416 6.37429 1.02025
570 2 23.0017 23.8978 8.34317 2.5032
207 1 27.7611 24.329 5.86991 2.79361
642 2 26.8797 24.2607 8.31803 2.90851
208 1 30.0907 25.909 6.0692 3.11939
279 1 32.4179 23.9895 4.87226 2.7603
714 2 32.0365 23.7453 8.00875 2.8054
280 1 34.8504 25.3913 5.44126 3.44744
351 1 37.4906 24.2633 4.68717 2.95744
786 2 36.7052 24.3499 7.68388 2.39238
352 1 39.5176 25.5288 6.06445 0.975995
423 1 42.0853 24.0727 5.76407 3.03767
858 2 41.3353 23.5742 8.22223 4.5982
424 1 44.6807 25.563 6.44043 3.21501
439 2 21.3238 27.8438 11.0656 6.04344
511 2 11.0624 3.71574 11.1921 2.96762
583 2 30.0376 27.5392 11.4144 1.9513
655 2 20.1576 3.75408 10.96 4.65831
727 2 38.9816 27.5991 10.6393 2.01744
799 2 29.6721 3.64364 11.018 2.4534
5 1 8.36139 4.7264 9.5285 3.39584
6 1 11.2577 6.00231 9.75911 3.08314
7 1 10.9359 6.14205 12.3374 1.16092
440 2 8.55274 4.98462 12.3702 6.22865
451 2 8.84743 7.24274 10.6144 2.45895
77 1 14.2207 4.91555 8.44988 3.29791
78 1 15.6854 6.42641 9.82148 2.52772
79 1 16.208 6.25272 12.9376 1.04741
512 2 13.6276 5.74075 11.3049 2.54553
523 2 13.0913 7.85723 10.6789 3.20019
149 1 18.3015 4.83387 8.32977 3.12544
150 1 20.321 6.26912 9.73804 1.05946
151 1 20.2617 5.80408 12.6322 2.98634
584 2 17.4499 4.67014 11.0253 2.46072
595 2 17.8127 7.25847 10.737 5.22921
221 1 22.6564 4.22503 9.15525 3.19257
222 1 25.9026 6.04662 10.2661 3.52684
223 1 25.2535 6.22045 13.2708 3.11481
656 2 23.1607 4.88781 12.187 2.69923
667 2 22.8011 7.70575 11.1176 2.22436
293 1 27.9313 5.01278 9.27137 2.45548
728 2 27.3944 4.72247 12.0509 4.41342
739 2 27.6353 8.27611 11.6016 2.03326
294 1 30.5592 6.43396 9.98233 3.14337
295 1 28.9454 6.10963 12.8404 4.53989
365 1 32.8369 4.11484 9.37128 1.31473
800 2 31.7074 4.39484 12.1847 2.6657
811 2 32.3303 7.76288 11.3264 3.12631
366 1 33.906 6.09725 10.464 1.13324
367 1 34.5326 6.03633 12.7564 2.7865
17 1 11.084 9.49439 8.73916 1.24626
452 2 10.9585 8.38111 11.1811 5.47862
463 2 10.9149 11.1173 10.5066 5.73762
18 1 13.0428 10.3025 9.91823 1.04913
19 1 12.6255 10.4376 12.5092 2.71288
29 1 13.4238 14.125 8.4274 3.63544
89 1 15.4069 9.17345 9.53239 1.12092
464 2 14.0119 13.3701 11.963 2.1865
524 2 15.2375 8.68803 12.1479 2.90757
535 2 16.1499 11.0554 10.605 3.74223
90 1 18.2249 9.56269 9.94808 4.00729
91 1 17.5048 10.0061 12.5366 3.19767
101 1 18.4758 12.6683 9.17673 2.88719
161 1 21.0669 8.38921 8.852 3.36896
536 2 18.5298 13.359 11.3915 2.35352
596 2 19.8191 8.39309 11.7972 2.49957
607 2 19.9319 11.6626 11.8566 2.27396
162 1 22.7552 10.3492 9.65876 1.22427
163 1 22.7585 10.1518 12.4822 3.07472
173 1 22.3045 12.7984 8.97166 1.33248
233 1 25.1833 9.13646 7.98238 2.99531
608 2 22.6659 12.8329 11.5841 1.75677
668 2 25.259 8.32085 11.4084 2.02037
679 2 24.8838 11.8007 11.7302 2.94917
234 1 26.7874 9.88952 9.6313 4.17188
235 1 27.5743 10.8011 13.5392 3.21425
245 1 27.2267 12.8875 9.60228 2.30057
680 2 27.3447 12.9303 12.4931 5.71964
305 1 30.0432 8.81412 9.07785 3.26958
306 1 31.9524 10.5818 10.5013 1.35529
307 1 32.0793 10.2861 13.043 1.03522
317 1 31.6891 12.5232 9.06114 2.74439
740 2 29.926 9.18179 12.2751 2.60667
751 2 29.5749 11.5663 11.6528 2.69068
752 2 31.7057 12.7988 12.7303 4.24405
377 1 34.5116 8.81408 9.08599 2.84865
378 1 36.8234 9.82299 9.3603 3.65397
379 1 37.0819 10.3318 12.6884 2.86744
389 1 36.541 13.2696 8.70588 2.9276
812 2 34.8622 9.46623 11.5137 2.11938
823 2 33.6148 12.1402 10.5702 2.75844
824 2 36.4453 12.7703 11.5955 2.17194
30 1 16.0383 14.2668 9.683 3.40811
31 1 16.079 14.5146 13.0655 3.38711
41 1 15.3308 16.8253 8.91322 1.04671
476 2 42.7877 17.1156 12.1777 2.73846
102 1 20.3518 14.4996 9.84716 3.11219
103 1 20.6055 14.9697 14.0163 3.22242
113 1 20.1951 17.0148 10.198 3.02737
547 2 18.2507 15.9547 12.1205 2.26619
548 2 20.8307 17.3527 12.7634 5.03663
174 1 24.7374 14.2695 10.2711 2.4961
175 1 25.181 14.4964 13.3818 2.61483
185 1 23.8563 16.7258 9.00183 3.65797
619 2 22.7563 16.5429 11.5613 3.07069
620 2 25.0985 17.2209 11.1784 1.73353
691 2 27.6815 16.0342 10.8849 1.96278
246 1 29.4064 14.155 10.2229 1.03863
247 1 29.8109 14.3275 12.5741 2.62346
257 1 29.8465 17.4122 9.539 2.57655
692 2 29.1481 16.6456 12.4161 2.81213
763 2 32.1718 15.2395 11.1804 2.56877
318 1 34.7244 15.0901 10.0493 3.11417
319 1 34.7284 14.4135 12.9159 1.3158
329 1 34.3672 17.5547 9.449 1.22364
764 2 35.0114 17.2508 12.181 2.62047
835 2 36.6507 15.5848 11.1589 3.06158
390 1 39.1948 13.9294 10.056 3.40207
391 1 39.0092 14.2901 12.6264 2.66068
401 1 38.9199 17.3459 9.50368 2.92629
475 2 13.3962 15.628 10.1993 2.39233
836 2 39.3762 16.8568 11.912 4.75714
42 1 17.5712 18.3787 10.1373 2.93164
43 1 17.7705 18.6743 13.0933 2.27024
53 1 18.2097 21.0921 8.88741 2.3295
54 1 20.5079 22.7371 10.233 2.83908
55 1 20.4067 22.1553 13.0013 2.93139
488 2 17.637 21.0156 11.2737 2.34521
559 2 20.0468 19.3556 11.9956 4.96428
114 1 22.1785 18.5199 10.5688 1.23107
115 1 22.5762 18.7224 13.1278 1.35335
125 1 23.001 20.3855 8.92335 3.57349
126 1 25.3748 22.3599 10.0556 3.75023
127 1 26.2098 21.9282 13.3819 3.37859
560 2 22.3819 20.8714 11.2936 2.14986
631 2 25.2167 20.018 10.8389 3.12237
186 1 27.3402 18.5819 9.94174 2.84404
187 1 27.2007 18.5053 13.0969 2.2418
197 1 28.2382 20.6118 8.52785 1.75659
632 2 27.9965 21.0066 11.2538 2.52388
198 1 29.8803 22.5708 9.57323 1.35593
199 1 29.6638 22.4109 12.5734 1.23744
258 1 32.191 18.2949 9.89464 3.47726
259 1 31.8966 18.31 12.8807 2.07344
269 1 32.2383 21.1849 8.90852 2.95304
703 2 29.9286 20.3356 10.4259 5.20817
704 2 32.5301 22.1214 11.4081 2.81917
270 1 34.1944 22.9474 9.37914 1.364
271 1 34.5867 22.6788 12.5646 1.06126
330 1 36.5294 18.7405 10.1368 2.46784
331 1 37.0462 18.9578 13.0267 2.67601
341 1 36.8258 21.8623 8.77535 3.07347
775 2 34.5161 19.7345 11.2851 2.64663
776 2 36.5511 21.0732 11.6177 2.46421
342 1 39.4048 22.6273 9.78326 0.969088
343 1 38.8507 22.5001 12.2362 3.66806
402 1 41.3409 18.3779 10.5873 1.29108
403 1 41.1314 18.555 13.1974 2.57202
413 1 41.3988 21.3128 9.81993 1.12374
847 2 39.1773 19.9144 11.2343 4.70475
848 2 40.9941 21.6122 12.2782 4.34481
414 1 44.0944 22.8893 9.95645 3.20805
415 1 43.9023 22.5613 12.9679 2.54919
487 2 43.4254 19.661 11.9522 2.43869
65 1 20.651 25.2829 9.029 1.10059
500 2 21.2327 25.0234 11.5448 3.37728
66 1 22.9725 26.5967 10.4027 2.71736
67 1 22.3466 26.9275 13.2755 1.23096
137 1 25.0991 25.1181 9.52979 3.15605
571 2 22.8098 23.4174 11.0408 2.19885
572 2 25.9052 25.1455 13.1461 1.99544
138 1 27.003 27.0783 9.90977 3.94899
139 1 27.6911 27.5774 12.9346 3.27396
643 2 27.7984 23.7795 11.4267 1.86353
209 1 29.8351 25.2391 8.98286 2.53472
210 1 32.3178 26.6284 10.0692 2.91929
211 1 32.0674 26.5845 12.9617 1.11182
644 2 29.3512 25.5226 13.3891 2.07826
715 2 31.87 23.9922 10.5023 5.12689
281 1 34.4534 25.5197 9.04101 1.08668
282 1 36.4493 25.9758 10.3613 1.24442
283 1 36.1852 27.2837 12.5867 3.5044
716 2 34.3089 25.1814 11.4621 6.9034
787 2 36.9121 23.2944 11.1331 5.94339
353 1 38.7921 25.8699 8.94642 3.07545
354 1 41.8048 26.2491 9.72577 2.52958
355 1 41.3284 26.2735 12.8536 1.14173
788 2 40.3488 24.536 11.0164 4.9687
859 2 42.2963 23.3211 11.2718 4.93393
425 1 43.9518 25.3038 8.9115 1.18502
426 1 45.9779 26.4866 10.1625 0.858342
427 1 46.0289 26.0931 12.6978 2.60451
499 2 45.8154 23.6152 11.1641 4.68207
860 2 43.3463 25.2922 12.313 4.33152
441 2 9.48707 5.15302 14.5383 2.77839
442 2 11.6211 5.63826 15.9096 2.52919
8 1 13.4661 7.55184 13.6684 2.75487
9 1 13.3086 7.40155 16.6303 2.02024
513 2 13.5031 5.06795 15.0028 2.2428
514 2 16.0792 5.8023 15.9705 2.57755
80 1 18.4641 7.38311 13.5815 0.971403
81 1 18.1939 7.52787 16.4783 2.6547
585 2 18.6564 4.94559 13.8409 6.56486
586 2 21.1717 6.18831 15.3504 2.63102
152 1 22.8293 7.30645 13.7786 2.67402
153 1 23.2818 7.44015 16.2798 2.77649
657 2 23.5148 4.99129 14.8076 4.70232
658 2 25.2838 6.58787 17.0656 3.00027
224 1 27.9203 7.93332 14.6656 2.87085
225 1 27.5061 7.89694 17.5417 1.3614
729 2 26.7566 5.38139 15.1605 2.94717
296 1 31.7338 7.77401 14.1375 3.08138
297 1 32.1087 7.08919 16.8663 1.24892
730 2 30.0212 6.43029 15.7856 4.84151
801 2 31.9446 5.0546 14.5881 2.05126
368 1 36.8338 7.40791 13.4563 2.35634
369 1 36.9435 7.13516 16.4227 2.10209
802 2 34.192 6.27236 15.1667 2.45596
453 2 11.2374 8.64425 13.7961 2.38109
10 1 15.7998 8.74997 17.6298 2.72317
20 1 15.8053 11.8161 14.0213 2.69187
21 1 15.5778 11.2339 16.5774 2.79622
454 2 13.6699 10.1322 15.136 2.38737
525 2 15.6589 8.57984 14.9573 2.09124
22 1 18.2927 12.8521 17.9254 1.16566
82 1 20.0486 8.63988 17.67 2.60277
92 1 20.5538 12.3059 14.2509 3.43371
93 1 20.4349 11.2623 16.6015 2.53838
526 2 17.6242 9.69559 15.1672 2.53398
537 2 18.3794 13.1847 14.2257 3.17814
597 2 20.458 9.49902 14.3238 2.54093
94 1 23.048 13.1397 18.1048 2.55276
154 1 25.0746 9.52071 17.3054 3.29469
164 1 25.3417 11.6595 13.9838 3.07132
165 1 24.9559 12.1966 16.6257 1.06512
598 2 22.9689 10.5495 16.4741 2.55799
609 2 22.5804 12.617 15.159 3.07357
669 2 24.7661 9.37896 14.2279 3.14912
166 1 27.4208 12.7779 17.9771 1.17185
670 2 27.8537 10.2453 16.5064 5.2871
681 2 27.3499 12.9472 15.3208 5.78797
226 1 29.7913 9.02426 18.1823 1.48659
236 1 29.7396 11.8531 14.329 1.24171
237 1 29.9465 11.5833 17.0105 1.42828
238 1 32.6257 12.7635 17.8219 2.74352
741 2 29.8888 9.23128 15.59 5.72515
742 2 32.5715 9.52916 16.2347 2.88979
753 2 32.0585 13.2795 15.0888 2.51441
298 1 34.872 8.94556 17.7931 2.60234
308 1 34.2027 11.7087 13.0958 3.03408
309 1 34.2846 11.183 16.5435 3.01274
310 1 37.3183 13.4568 17.5693 3.31383
813 2 35.3098 9.52934 14.0898 3.60001
814 2 37.6216 10.0885 15.6461 2.03289
825 2 36.5024 12.711 14.4995 1.93258
370 1 39.4744 8.93682 17.1933 2.3944
380 1 39.0457 11.7203 13.7169 3.19641
381 1 39.2228 11.8798 16.6681 2.6794
382 1 41.0418 13.1039 17.874 2.95023
465 2 41.1321 13.1136 15.0313 2.3066
466 2 16.0422 14.1521 15.535 3.15584
32 1 18.3418 16.0666 14.5549 1.0506
33 1 18.4415 15.125 16.8394 1.35778
34 1 20.1154 17.1605 18.3231 2.83088
538 2 20.6628 13.9552 16.4547 5.77467
549 2 20.5292 16.9532 15.6358 4.56495
104 1 23.4098 16.0331 15.1051 4.18598
105 1 22.448 15.8968 17.6191 2.58633
106 1 25.5107 17.0904 18.1377 2.74891
610 2 25.3131 15.2136 16.3324 5.19055
621 2 24.4765 17.2135 13.8933 5.87046
176 1 27.3559 15.6239 14.0729 2.2522
177 1 27.7257 15.2103 17.0804 2.51754
178 1 29.8669 17.1937 17.894 2.3768
248 1 32.2251 15.4014 13.555 2.83034
249 1 32.4189 15.7054 16.5956 2.19291
682 2 29.8777 14.5069 15.5695 2.30356
693 2 30.2577 17.8452 14.7695 2.72392
250 1 34.8285 17.1463 17.2699 3.04331
320 1 37.1773 16.0989 13.7687 3.15507
321 1 37.411 16.2051 16.8984 3.52188
754 2 34.7745 13.7498 15.7586 1.91686
765 2 33.7524 17.1702 14.3302 2.57434
322 1 39.5389 16.9547 17.8861 2.88227
392 1 41.706 15.529 14.1712 2.65711
393 1 41.8039 15.574 16.5231 2.91214
826 2 39.5034 14.8388 15.8989 4.99921
837 2 39.0251 18.0974 14.8715 5.10524
394 1 43.8272 17.4306 17.472 2.79888
477 2 43.766 16.97 14.9052 4.61073
44 1 20.5255 19.5614 14.627 1.37325
45 1 20.5724 19.861 16.9168 1.12164
478 2 18.0324 17.9759 16.1849 2.51973
490 2 20.6169 22.2079 16.0321 5.3805
46 1 22.9823 20.8587 17.4861 2.62713
116 1 25.034 19.7154 14.1442 2.52322
117 1 25.9972 19.3344 17.4235 3.44019
550 2 22.9906 18.4843 15.4915 5.96707
561 2 22.8813 21.2956 14.1273 2.15271
562 2 24.807 21.6997 15.9717 2.09863
118 1 28.3481 20.9455 17.7638 3.76911
622 2 27.2339 17.4796 15.7757 2.5546
633 2 27.5362 20.3687 15.12 2.74297
188 1 29.876 19.7901 13.1825 3.26501
189 1 30.1484 19.6205 16.637 2.69667
190 1 32.1116 21.2628 17.5752 0.95509
634 2 30.1106 22.6187 16.1389 5.27695
694 2 32.1496 18.2249 15.7536 3.22147
705 2 31.7186 21.0216 14.7658 2.2484
260 1 34.4348 19.9139 13.9579 2.06474
261 1 34.0349 20.2202 16.5539 1.07964
262 1 36.4453 21.1759 17.0515 3.35116
706 2 33.8195 22.4343 14.6501 5.23053
766 2 36.3402 18.2372 15.8766 2.91445
777 2 36.2628 21.3329 14.6476 4.92759
332 1 39.1657 20.2101 13.8084 1.12636
333 1 39.1309 19.5339 16.8087 3.25747
334 1 41.4877 21.4165 17.3937 2.4541
778 2 38.7855 21.8665 15.7486 3.03743
838 2 41.8146 18.8945 15.9915 2.48437
849 2 41.4936 20.968 15.0225 5.38104
404 1 43.9207 20.2458 14.0699 3.17839
405 1 44.4202 20.2975 16.5649 3.64969
406 1 46.4878 21.5977 18.1071 1.07091
489 2 18.2608 21.6038 13.804 6.02392
850 2 43.6984 22.7876 16.208 2.82692
56 1 22.7279 23.9884 13.9008 3.56081
57 1 23.1054 23.4388 17.1751 1.24287
58 1 25.3093 25.2861 18.5632 1.12417
502 2 22.5647 26.2169 16.0184 2.20425
573 2 24.7226 24.4954 15.5614 2.59592
128 1 27.711 23.4459 14.6877 4.06529
129 1 27.6545 24.0186 17.0483 2.89093
574 2 27.0975 26.7765 15.3423 5.47392
130 1 30.0608 25.2659 17.1612 2.95591
200 1 31.9934 23.7255 13.3063 2.65812
201 1 32.447 23.7665 16.7845 2.63122
645 2 31.0684 24.9878 15.0884 3.17376
646 2 32.7228 27.0633 16.1421 4.55697
202 1 34.7297 24.8982 17.8631 3.50744
272 1 36.2468 23.733 13.6898 3.06599
273 1 36.6039 23.9811 16.1455 1.12836
717 2 33.9819 24.9433 14.9735 2.7641
718 2 36.5099 26.1374 15.0561 3.51064
274 1 38.8596 25.1804 17.4294 3.01363
344 1 41.3693 24.1593 13.5011 2.82909
345 1 40.5345 23.6714 16.1981 3.76389
789 2 38.5423 25.1891 12.4801 2.45734
790 2 41.5014 27.0386 15.586 3.2923
346 1 43.7847 24.9167 17.6607 3.41681
416 1 46.2722 23.9268 14.0667 3.35627
417 1 45.9528 23.9583 16.7466 2.56182
861 2 44.1779 25.3605 14.6842 1.98954
862 2 46.0369 27.2442 15.4136 5.20619
418 1 48.8868 24.3079 17.9796 2.90808
501 2 20.5665 24.968 14.7584 3.08073
68 1 24.7029 27.4695 14.25 2.88536
69 1 25.1993 27.4784 17.0088 0.984279
70 1 27.4702 28.6974 17.3741 3.17746
140 1 29.9737 28.2986 14.1679 1.03462
141 1 30.0317 27.5791 16.8879 1.02741
142 1 32.2732 29.0343 17.8074 2.47758
212 1 34.3181 27.4422 14.1901 3.30621
213 1 34.4873 28.6495 16.9279 3.98549
214 1 37.1093 29.4472 17.5932 1.36253
284 1 39.1341 27.9088 13.4155 2.50863
285 1 39.2754 27.8215 16.0759 2.64857
286 1 41.2055 28.7735 17.673 3.17357
356 1 43.3911 27.9699 13.6767 2.34259
357 1 43.9246 28.4243 16.404 2.60665
358 1 46.3131 29.2387 17.4508 1.50425
428 1 48.1486 27.7121 14.1513 2.94816
429 1 48.4406 27.5314 16.6835 3.4236
430 1 51.2701 29.2996 17.986 3.18499
443 2 11.5717 6.79468 18.5752 4.88081
444 2 13.2124 8.17074 19.7972 2.51253
515 2 15.5205 6.68029 18.9417 2.10199
516 2 18.4663 6.89076 19.6014 2.45465
587 2 20.2163 6.20839 18.1599 4.54863
588 2 22.3904 7.60051 19.0808 2.62951
659 2 24.9997 6.71477 19.243 6.82276
660 2 28.347 7.43839 20.2 4.71969
721 2 33.1314 8.14857 22.4263 3.95698
731 2 29.0363 6.1498 17.9648 5.6491
732 2 32.1465 7.03928 19.1912 2.87712
793 2 37.0843 7.79846 21.7262 3.0676
803 2 34.9784 5.99495 17.9802 2.1836
804 2 36.6761 7.68887 19.1807 6.02203
11 1 15.8828 9.06852 20.8449 2.39779
455 2 13.4334 10.373 18.4348 2.4583
456 2 15.963 12.805 19.5885 2.80185
12 1 18.2257 10.3983 21.2918 3.35123
23 1 18.1689 13.3213 20.3992 1.05343
83 1 20.1333 9.05041 20.3995 1.14779
527 2 17.958 10.1618 18.6054 2.46416
528 2 20.5476 11.5964 19.3481 4.9785
84 1 23.2197 9.84501 21.2253 3.40781
95 1 22.6504 12.4845 20.6218 2.88794
155 1 25.2294 8.87842 20.3159 1.36872
599 2 22.22 9.68236 18.6526 2.06741
600 2 25.6775 11.3267 20.3473 2.67185
156 1 27.4987 9.55417 21.7299 3.2085
167 1 27.4464 13.1828 20.634 2.87112
671 2 27.5031 9.58175 18.9512 5.31123
227 1 30.7268 8.91891 21.0769 2.67145
228 1 32.4032 10.7472 21.635 2.61724
239 1 32.5892 13.1009 20.4461 3.33779
672 2 29.2553 11.4943 19.2596 2.78077
743 2 31.9828 9.54957 18.4029 2.76053
299 1 34.824 9.31242 20.3788 1.07796
300 1 36.9961 10.5628 21.2404 2.11975
311 1 37.0336 13.4925 20.5026 3.20883
733 2 34.4985 12.3569 22.3904 2.19107
744 2 35.017 11.9044 19.315 2.55204
815 2 37.3638 10.2186 18.5384 2.17703
371 1 38.8139 8.81768 20.1263 3.86025
372 1 41.6127 10.9577 21.8059 3.16513
383 1 41.6722 13.2559 20.6905 2.41611
805 2 24.8583 3.84526 -0.32262 2.06684
816 2 39.4837 12.1611 20.0539 2.10922
24 1 20.3316 13.8282 21.6148 2.94619
35 1 20.2259 16.7511 21.2303 4.2739
468 2 18.027 15.7142 19.7598 3.82122
539 2 20.8867 14.6781 19.3367 3.92645
96 1 25.0683 15.0766 21.8309 3.53091
107 1 25.1947 17.1143 20.5918 1.07055
540 2 23.0229 15.511 20.445 2.33743
611 2 25.3573 13.7718 18.7735 2.45938
612 2 27.5565 15.5989 19.9999 4.93687
168 1 29.8417 14.1983 21.0539 2.92234
179 1 29.3059 17.332 20.7891 3.12513
683 2 29.9137 14.5011 18.1511 2.35878
684 2 31.4248 15.5515 20.0533 2.80582
240 1 34.4889 15.0854 22.2187 3.38486
251 1 33.7685 17.4392 20.44 2.85218
745 2 37.7771 15.4695 22.3606 4.26733
755 2 34.5622 14.7726 18.5809 1.46816
756 2 36.186 15.9737 20.0097 2.51556
312 1 40.2217 15.04 22.0861 3.0133
323 1 38.909 17.2342 20.6052 3.32889
817 2 42.676 15.9394 21.893 6.31134
827 2 39.0839 14.701 19.1018 2.82187
828 2 42.2652 15.6311 19.2949 2.3487
384 1 44.6751 14.4407 21.5398 3.43351
395 1 43.8653 17.3105 20.1665 3.12941
467 2 16.4613 14.3637 18.0301 2.77351
480 2 20.9991 19.6119 19.3262 2.41457
36 1 22.7666 18.4481 21.506 2.47816
47 1 22.7345 21.1659 20.4199 3.05469
48 1 25.3689 21.4747 21.6367 3.05473
551 2 23.0413 18.3043 18.7627 2.1626
552 2 24.6259 19.6123 19.8914 4.111
563 2 25.1184 22.6375 18.2645 2.92573
108 1 26.9837 19.0909 21.7566 1.0934
119 1 27.9897 21.4906 20.4521 3.43844
623 2 27.3365 17.9821 19.1798 4.89113
120 1 29.8826 22.5617 21.8451 3.08348
180 1 31.3084 18.4741 21.0444 1.30712
191 1 32.2815 20.9486 20.6096 2.34898
624 2 29.963 20.1907 19.5981 4.62518
635 2 29.0984 22.4708 19.0433 9.03229
695 2 32.5362 18.3876 18.1872 4.15294
192 1 34.5852 21.9043 21.4069 1.21071
252 1 36.7034 17.7688 21.621 1.21544
263 1 36.963 20.8165 20.8408 2.86648
696 2 34.1257 19.8163 19.1937 2.09181
707 2 34.3194 22.6556 18.0467 4.51671
767 2 36.234 18.4301 18.9238 2.10596
264 1 39.1874 22.8803 20.9217 3.3639
324 1 42.002 18.4101 21.3755 3.30265
335 1 41.5092 21.527 20.1877 2.23988
757 2 39.9629 19.5232 21.9153 3.09334
768 2 39.4523 20.4107 19.1885 2.45736
779 2 38.2769 23.0277 18.035 2.93042
839 2 41.7748 19.0879 18.9112 2.39458
336 1 43.8562 22.7553 21.5334 3.34119
396 1 46.2095 18.8452 21.9646 3.13869
407 1 46.1841 21.4301 20.573 1.28838
479 2 46.7266 19.1122 19.3966 2.3456
829 2 44.4474 20.3298 22.1785 2.72707
840 2 43.8657 19.8548 19.3906 2.51239
851 2 43.6979 22.4913 19.0825 4.82179
408 1 48.8813 22.6854 22.0567 2.89496
491 2 20.9003 22.0821 19.003 4.74855
59 1 25.0916 24.3524 20.8395 3.34174
492 2 22.5206 24.3269 19.7593 5.33206
503 2 50.8002 26.1843 19.0387 3.06052
60 1 27.8647 25.9801 21.3528 2.93787
564 2 27.0259 23.8534 19.7302 4.78728
575 2 27.9591 26.7166 18.659 4.44698
131 1 30.2797 25.3414 20.5372 2.61585
132 1 32.4947 26.2906 21.6425 1.13689
636 2 32.3629 24.018 19.2711 1.95744
647 2 33.1047 26.3428 18.7801 5.26943
203 1 34.2541 24.9034 20.7997 1.06995
204 1 36.4184 26.1502 21.2964 2.87703
708 2 36.1366 23.4409 19.8145 2.04176
719 2 37.1578 26.5373 18.4597 2.82622
275 1 38.9121 25.3895 20.1699 1.25479
276 1 41.1818 26.6705 21.0121 2.64516
769 2 27.7499 15.9076 -0.00155954 2.89816
780 2 41.6416 24.4138 19.4397 5.49185
791 2 41.7858 26.0853 18.6107 2.96426
347 1 43.8196 25.2545 20.5396 1.21616
348 1 46.1669 26.0808 21.4235 3.29501
841 2 46.2186 23.6107 22.0337 2.80788
852 2 46.7214 24.1372 19.6453 4.58562
863 2 46.4755 26.204 18.1164 2.5502
419 1 48.4685 25.3992 20.6824 2.9982
420 1 51.0809 26.3973 21.8268 2.75996
504 2 25.2408 27.8349 19.7396 2.52626
71 1 27.7628 28.8336 20.4103 2.82853
72 1 29.7834 30.395 21.4285 2.52691
143 1 32.9286 28.7577 20.4965 2.74848
576 2 30.3624 28.3104 19.5888 2.54528
144 1 34.1512 30.9844 21.5341 3.71689
215 1 37.1245 29.6559 20.1793 3.70475
648 2 34.9586 27.5333 19.3317 2.5141
216 1 39.9796 31.0197 21.4511 3.28072
287 1 42.4797 29.4009 20.6432 3.05808
720 2 39.257 27.8955 18.9811 2.77
288 1 44.4334 31.0465 22.2984 1.12159
359 1 45.2218 29.1872 20.327 3.28115
781 2 44.1775 27.8219 22.123 2.50263
792 2 43.7964 27.5676 18.6854 2.65738
360 1 48.4 31.1009 21.2313 3.58471
431 1 50.7885 29.4246 20.5305 2.48257
853 2 34.8749 20.1867 -0.102274 2.43884
864 2 47.6654 28.849 19.5449 2.40751
432 1 53.5583 30.5809 20.8316 1.15228
ITEM: TIMESTEP
300
ITEM: NUMBER OF ATOMS
864
ITEM: BOX BOUNDS xy xz yz pp pp pp
-6.5731215644790619e-01 5.5954406268863238e+01 1.4194108858926869e+01
-6.2063509566195263e-01 3.2132670536427767e+01 1.4148062893830511e+01
-5.4754400664652991e-01 2.2556145952479579e+01 8.1683879202648182e+00
ITEM: ATOMS id type x y z f_grace_gamma
433 2 27.4578 -0.137898 -0.47359 1.90144
434 2 1.33372 -0.0622901 0.544695 2.0151
435 2 16.2994 25.055 3.51285 2.05469
445 2 1.69981 3.22002 -0.44404 1.92802
1 1 4.10338 1.98794 1.03797 2.96147
2 1 6.6908 4.36233 2.17193 3.78701
505 2 17.6316 7.70379 21.9426 3.74377
506 2 7.05075 0.503992 0.518924 2.65389
507 2 6.78582 0.918066 3.31889 2.9028
517 2 7.55451 3.19686 -0.436115 3.16491
73 1 9.01057 2.28195 1.36333 3.13228
74 1 11.6527 2.81206 2.78342 3.07346
577 2 37.8547 31.4083 22.4344 6.05209
578 2 11.1762 1.14066 -0.0555179 3.24134
579 2 25.5063 24.7551 3.54609 2.60252
589 2 10.5923 3.55985 0.208392 2.14839
145 1 13.5884 1.41897 1.29991 2.67101
146 1 15.4447 3.45267 2.2835 2.92053
649 2 27.8641 23.2121 0.644318 3.10049
650 2 16.2923 1.31831 0.628568 2.59402
651 2 30.5034 24.9888 3.92466 3.41078
661 2 15.4352 4.0087 -0.553537 3.30567
217 1 18.6479 2.00938 1.40746 2.80518
218 1 20.798 3.28338 2.54693 1.2409
722 2 21.1843 1.65107 -0.156074 2.24755
723 2 20.6505 0.926181 2.63657 4.36161
289 1 23.0563 2.58668 1.66328 0.964828
290 1 25.13 3.47025 2.09271 1.06701
794 2 25.411 1.7064 -0.380314 3.24287
795 2 25.4678 1.12389 2.97638 3.30305
361 1 27.4687 2.06691 1.65117 3.41394
362 1 30.7221 3.35665 2.83239 3.86152
13 1 6.48672 6.57102 1.77812 1.16799
446 2 4.09109 4.19318 0.365389 3.51073
447 2 4.48507 4.88184 3.90729 3.27683
457 2 32.4516 7.97778 -0.420097 4.88321
14 1 8.86155 7.72247 2.25794 1.08045
85 1 11.1216 6.13618 1.37735 3.13074
518 2 8.52254 5.61238 0.0320708 2.08259
519 2 9.30327 4.54804 2.84446 2.51219
529 2 7.91403 8.0407 0.100163 4.48603
86 1 13.5634 8.0929 2.20713 2.69459
157 1 15.1117 5.8193 0.752667 3.38594
590 2 13.4782 4.24396 0.692162 2.94459
591 2 13.5943 4.58953 3.28154 4.59568
601 2 27.8828 15.5886 22.4772 5.39662
158 1 18.5819 7.5377 2.32891 3.55587
229 1 20.7421 6.00014 1.71293 1.22308
662 2 17.8869 5.09664 0.0808259 2.43761
663 2 18.2097 4.1409 3.30099 3.07617
673 2 17.7654 8.07883 -0.219586 2.25138
230 1 22.8007 7.38343 1.93461 1.30827
301 1 25.0522 6.18461 1.64663 1.18872
734 2 22.9808 5.23713 -0.050876 2.89004
735 2 22.8109 4.84974 3.08725 4.84888
302 1 27.4086 7.56381 1.27972 1.34073
806 2 27.5126 4.68864 0.520502 2.53612
807 2 27.9445 5.34179 2.87203 1.62544
373 1 30.1119 6.61569 0.954773 3.0432
374 1 32.043 7.56251 2.13678 1.0555
458 2 6.27959 10.2828 0.630961 5.5267
25 1 8.36959 10.2574 1.4501 1.00153
26 1 10.608 10.7034 2.43077 1.17896
470 2 8.46274 13.2644 0.488019 2.97912
471 2 35.9926 12.1368 4.24965 2.14258
530 2 11.2252 8.70315 0.752191 5.36191
531 2 11.2746 8.3671 3.46886 2.86448
541 2 10.7252 11.4399 -0.0605334 4.63974
97 1 13.5357 10.572 1.15736 0.908641
98 1 15.4345 12.0501 2.51266 1.21568
542 2 13.3359 12.9432 0.283695 5.15218
543 2 12.9751 12.2891 2.83884 6.0209
602 2 15.4036 8.78315 0.830552 2.41484
603 2 15.5731 8.82016 3.91792 2.48253
613 2 15.8597 12.2635 -0.176009 2.71724
169 1 17.9889 10.6083 0.971069 3.23143
170 1 20.3383 11.2874 2.19827 1.10571
614 2 17.9925 13.1471 0.804413 4.88223
615 2 18.6673 12.897 3.12148 2.95087
674 2 19.8203 9.14523 0.600516 4.67476
675 2 19.5955 9.30486 3.72776 5.89801
685 2 34.5003 19.4781 22.2783 6.15247
241 1 22.4183 9.90514 1.26478 1.12462
242 1 25.1191 11.1886 2.55004 2.74803
686 2 23.5049 11.5632 0.0565362 2.74172
687 2 22.4601 12.7327 2.91827 2.32596
746 2 25.198 9.48586 0.294106 5.54917
747 2 25.0365 8.62951 2.12532 5.03812
313 1 27.6732 10.1135 1.34288 1.38465
758 2 27.3057 12.8268 1.08198 2.35647
759 2 28.8007 13.373 3.89586 6.2231
314 1 30.0653 11.408 2.61091 3.3011
385 1 31.9844 9.76945 1.36362 1.17784
818 2 30.0832 9.66139 -0.389528 5.50792
819 2 29.7359 8.8144 2.46543 4.58943
830 2 32.4039 13.5005 0.328876 2.6351
831 2 32.1392 13.3108 3.6741 3.02094
386 1 34.4557 11.949 2.31196 3.2836
459 2 6.73295 9.19793 3.33466 5.81372
469 2 20.5101 20.0518 21.9773 2.82584
37 1 11.0452 13.4603 1.79707 3.82432
482 2 11.1718 16.7655 1.04672 1.77479
38 1 13.4491 14.9842 2.1049 4.32771
109 1 15.6446 14.4184 1.19212 3.0316
553 2 26.6818 24.2295 22.2874 3.1333
554 2 16.5567 17.548 0.301853 2.93499
555 2 16.332 17.3571 3.54745 2.90127
110 1 18.8976 15.4727 2.0185 3.89064
181 1 20.6168 13.807 0.94497 3.0878
625 2 32.3722 23.3681 22.3487 5.66935
626 2 21.1074 16.9068 0.617558 5.25131
627 2 20.1222 16.843 3.56381 2.58063
182 1 22.7148 16.2226 2.28938 3.04141
253 1 24.8231 14.2968 1.51414 3.47848
697 2 23.1839 14.794 -0.267165 2.57497
698 2 24.9241 16.7741 0.472741 3.22679
699 2 25.3684 16.8183 3.55192 2.82088
254 1 27.0244 15.2925 2.70328 3.02578
325 1 29.7127 14.5105 1.6073 2.77595
326 1 31.665 16.1165 2.53626 3.73392
770 2 30.0057 17.8024 0.656528 3.07114
771 2 29.5231 16.4834 3.94557 2.88804
397 1 34.0672 14.9322 2.26034 1.264
398 1 37.0162 15.2238 2.38199 3.54605
481 2 9.44424 15.9067 0.231376 2.72099
842 2 34.3598 16.8627 0.654932 2.40505
843 2 35.1375 17.6732 2.68583 2.65125
483 2 39.8319 17.3708 3.91794 2.34561
493 2 11.6597 20.0215 -0.453103 2.65626
49 1 13.4211 18.5902 1.29379 2.79694
50 1 15.864 19.4331 2.21578 1.21156
61 1 16.336 22.04 1.57581 2.64861
494 2 13.9483 20.6686 0.268165 2.6532
495 2 14.4926 21.2352 3.27031 2.78941
565 2 30.601 28.0794 22.5978 2.43271
121 1 18.0453 18.7332 1.79441 1.06238
122 1 20.4588 19.4554 1.96213 1.09838
133 1 20.7327 22.3609 1.85026 2.80552
566 2 18.7953 21.0438 0.548542 5.11301
567 2 17.8696 20.8995 3.19692 5.49236
637 2 35.8016 28.6151 21.6334 2.40604
193 1 22.6594 18.8224 1.18246 1.12118
194 1 25.0072 19.6177 1.71616 1.24451
205 1 25.2241 22.3637 1.4698 2.93393
638 2 22.8923 21.8698 1.26476 3.0672
639 2 22.5925 20.8192 4.12656 7.67159
709 2 38.5541 27.6057 21.6364 2.99102
265 1 26.8574 18.3348 1.00046 3.94127
710 2 27.739 20.6704 -0.300481 2.5698
711 2 27.4717 20.7938 2.68033 4.67882
266 1 30.1994 19.2698 2.3251 3.04552
277 1 29.6222 21.9028 1.78124 1.12755
337 1 32.5948 19.1103 1.12854 3.97908
782 2 32.4374 21.2584 0.199102 3.22632
783 2 32.3992 20.8012 3.21943 2.69033
338 1 35.1108 20.4584 2.40988 3.49289
349 1 34.8899 22.9056 1.06325 2.73505
409 1 37.1167 18.5417 1.74731 3.24991
854 2 37.013 21.3568 0.688339 3.04958
855 2 37.2821 21.6673 3.77814 2.82085
410 1 39.3712 19.8215 2.36786 3.04049
421 1 39.3412 22.2716 0.546821 3.6562
62 1 18.4955 23.6482 2.00666 2.8416
134 1 22.7035 24.0457 2.30917 2.84138
206 1 28.0875 23.7535 3.35073 2.901
278 1 32.2804 23.3791 2.00394 2.16359
350 1 37.2112 24.2599 1.75359 2.467
422 1 41.9452 23.8399 2.70472 3.79952
3 1 7.01617 3.65837 4.56613 2.66547
436 2 4.71901 1.731 5.27621 2.4376
437 2 46.6828 26.8731 7.8548 5.17172
438 2 6.64322 3.14742 7.75953 4.75544
75 1 11.6983 3.15739 5.26891 1.03928
508 2 9.44851 2.55877 4.79089 4.97901
509 2 8.54699 2.38595 7.58679 2.91083
510 2 9.95178 3.77576 8.46225 5.9829
147 1 15.7601 3.90297 4.6586 3.24778
580 2 13.9958 1.63049 4.37745 4.96544
581 2 13.1101 2.78162 7.40943 2.63791
582 2 15.934 3.20328 8.21203 2.63252
219 1 20.7028 4.59585 5.31888 1.14242
652 2 19.0683 2.78399 4.42283 2.97675
653 2 18.6101 2.33437 7.32773 2.8355
654 2 20.8697 3.6921 7.64141 2.56831
291 1 25.4637 3.24693 4.94057 2.76004
724 2 22.3762 2.72461 4.34257 6.14903
725 2 23.3525 2.44237 6.17193 2.27813
726 2 25.3819 3.79074 7.84098 2.07989
796 2 28.5542 3.49508 4.21032 2.43228
797 2 27.2696 2.175 7.00136 3.22732
363 1 31.1056 3.62528 5.50227 1.46666
798 2 30.1858 3.81832 8.73115 2.78905
448 2 6.10797 6.81477 4.82141 2.27423
449 2 7.36643 5.86218 6.69303 2.07694
4 1 9.29875 4.56102 5.78427 2.64315
15 1 9.21379 7.57098 5.00016 2.67445
450 2 9.22608 7.2465 8.14477 2.67526
520 2 11.667 5.8378 4.12218 2.09541
521 2 11.5526 5.40942 7.07368 2.20554
76 1 13.6516 4.98964 5.68242 0.944955
87 1 13.8604 7.64872 5.34492 3.59077
522 2 13.8912 7.5531 8.27021 2.71453
592 2 15.9167 6.51114 3.20014 3.02431
593 2 16.0712 6.32296 6.03488 5.21801
148 1 18.4715 5.08604 5.64315 1.13567
159 1 17.6658 7.62995 4.62877 1.0839
594 2 18.0422 7.92194 7.34817 6.67505
664 2 19.8407 6.37155 4.28989 4.55314
665 2 20.71 6.81663 7.58492 5.57051
220 1 23.2179 5.27572 6.37047 3.23491
231 1 22.4674 7.66353 5.03623 3.76849
666 2 23.5474 6.71504 8.42099 2.21933
736 2 25.7632 6.22214 4.33702 2.67577
737 2 25.344 6.1458 6.95176 2.2333
292 1 28.0635 4.62457 6.65064 3.90673
303 1 27.4087 7.77926 5.27522 2.90487
738 2 28.0151 8.27289 7.93805 3.35106
364 1 32.9798 4.78689 6.77604 0.885624
375 1 32.1014 7.29946 5.23967 4.15143
808 2 29.7416 6.8266 4.11343 2.69651
809 2 30.3216 6.74072 6.45014 3.89185
810 2 33.4667 6.91551 7.73769 3.76404
16 1 11.5799 9.0406 6.42116 2.55002
27 1 11.0197 11.7717 4.81389 2.44871
460 2 8.67709 9.98764 5.1175 2.76974
462 2 11.6047 12.0462 8.003 3.1605
28 1 13.3515 12.9739 5.95593 2.84547
88 1 16.3695 9.57198 6.59671 0.951738
99 1 15.9324 11.415 5.11767 3.46168
532 2 13.4403 10.4767 4.53204 2.51556
533 2 14.0792 10.2497 7.49037 5.58211
534 2 15.484 12.2739 8.14817 2.53626
100 1 18.5053 13.458 7.093 1.31675
160 1 19.4784 9.12884 6.18871 3.97074
171 1 20.1949 11.822 5.17752 2.66126
604 2 17.8936 10.9076 3.98796 2.89078
605 2 18.1214 11.201 6.12424 5.69136
606 2 20.0974 10.3159 8.07286 5.38115
172 1 22.6957 12.8002 6.17167 1.3299
232 1 25.0948 8.84121 4.30416 3.55816
243 1 25.0831 12.0287 5.28115 3.79657
676 2 22.9745 11.1094 4.51186 3.0778
677 2 22.137 9.78464 6.55012 2.09745
678 2 24.9056 11.9882 8.23808 2.65683
244 1 27.8181 12.5257 6.06606 2.96085
748 2 27.5805 10.3026 3.86092 5.12541
749 2 26.881 10.3466 5.98384 4.89478
304 1 29.5919 8.98127 5.57604 2.54679
315 1 30.5217 11.4899 5.37733 2.90743
316 1 33.6525 13.0422 6.69035 3.41737
750 2 29.299 11.4036 8.17887 2.81753
820 2 31.812 9.60491 3.94641 6.01239
821 2 32.7275 10.079 7.75353 2.72218
376 1 34.5254 8.58212 6.68251 4.13787
387 1 33.7776 10.8835 4.78987 2.75807
388 1 37.3342 13.8869 6.30414 3.01018
461 2 37.6203 11.1306 7.13738 1.98817
822 2 35.1182 10.9878 7.0024 2.47491
472 2 11.2831 14.9782 3.66129 2.59123
39 1 13.8309 15.9984 5.96939 2.92647
40 1 16.0584 17.3452 5.9289 3.31283
474 2 12.9046 16.6168 8.38966 5.39948
544 2 16.9638 14.6923 3.80233 2.28376
545 2 15.5703 15.1543 6.90865 4.55166
111 1 18.2441 15.6617 6.02713 3.45017
112 1 20.5936 17.8774 6.192 3.22579
546 2 17.848 16.0177 8.87499 2.86816
616 2 20.6002 14.4902 4.69651 2.43745
617 2 20.675 14.8308 6.93052 2.76839
183 1 22.9297 15.9827 5.65275 2.77999
184 1 25.4915 16.9143 6.31945 3.65095
618 2 22.6402 15.0992 7.79297 3.65626
688 2 26.071 13.8069 4.23541 6.57709
689 2 25.0891 14.519 7.29105 2.56445
255 1 27.8313 15.4211 5.43827 1.60193
690 2 27.488 14.9171 8.06268 1.6459
256 1 30.4762 15.8222 6.745 4.14202
327 1 33.2523 15.4783 5.42394 2.80848
760 2 30.3799 14.2182 4.7753 2.98503
761 2 29.8387 13.7801 8.08933 5.9915
762 2 33.6142 14.8334 8.08029 2.96779
328 1 35.4641 17.4867 5.67991 2.67941
399 1 37.6471 16.0962 5.39133 1.07296
832 2 35.2386 14.2786 4.43425 2.78295
833 2 35.9449 15.7524 7.67171 2.6586
834 2 38.2605 15.8441 8.00688 2.60457
400 1 39.7074 17.3896 6.31641 2.73852
473 2 11.5409 14.6117 6.57679 5.40412
51 1 15.563 19.9873 5.24974 3.1379
484 2 13.5427 18.5774 4.79939 2.55386
486 2 15.3271 19.9774 9.57722 2.94438
496 2 16.1197 23.2016 5.36325 5.32099
52 1 18.0624 20.9075 5.95818 1.09601
123 1 20.4055 20.3084 4.62402 4.15556
556 2 18.4497 18.8042 4.70735 5.01524
557 2 18.0439 18.2274 7.13657 2.80905
558 2 21.0971 19.3914 8.39998 3.07154
568 2 20.5806 22.7836 5.09006 3.44111
569 2 21.0499 22.5912 7.47693 2.48667
124 1 23.0614 20.9541 6.42014 3.56158
195 1 25.4322 20.3209 4.26611 3.78274
628 2 22.2975 18.9594 4.27565 3.11824
629 2 23.868 18.4516 6.87633 3.53006
630 2 26.0811 20.0055 7.91305 1.70504
640 2 26.055 22.5758 4.69605 2.6457
641 2 26.2907 22.1004 6.72592 1.79259
196 1 27.7947 20.5337 5.52819 1.42731
700 2 27.5691 18.2464 4.5189 2.1813
701 2 28.1624 18.4777 6.88366 2.81505
267 1 29.987 19.7305 5.00941 2.88115
268 1 32.649 20.8411 5.81307 2.57787
702 2 31.4716 19.0117 7.56888 3.34135
712 2 30.0725 22.63 4.55802 3.09647
713 2 30.1393 22.1197 6.70498 5.08583
772 2 32.6395 17.9558 4.56162 2.5499
773 2 33.0134 17.7432 6.96539 2.02606
339 1 35.2818 20.1824 5.13408 3.02552
340 1 37.657 21.7096 6.11766 3.37853
774 2 34.9758 20.3795 8.14868 3.52843
784 2 35.1268 23.6241 3.74024 2.38433
785 2 35.0673 23.1414 6.57727 2.23452
844 2 37.5276 19.0648 4.17792 4.76799
845 2 36.763 19.438 7.38006 2.84597
411 1 39.685 19.8531 5.19104 2.81527
412 1 41.6577 21.4339 6.8256 3.35026
485 2 41.7786 18.7456 7.70249 2.42431
846 2 38.5303 20.6415 8.51528 2.76237
856 2 40.0402 23.0444 4.66816 2.64056
857 2 39.3235 23.1114 7.14993 3.35934
497 2 16.2607 22.0539 7.16694 2.73056
63 1 18.4803 23.3076 5.00461 3.40988
64 1 21.3837 25.4382 6.36536 3.24139
498 2 18.6399 23.9408 7.78462 5.9876
135 1 23.2907 24.0594 4.76907 2.9339
136 1 25.145 25.3727 6.34784 3.16082
570 2 22.9811 23.1298 7.8424 3.00687
207 1 28.0475 24.3355 6.17002 3.47469
642 2 26.9788 24.4077 8.30215 3.00894
208 1 30.52 25.7689 6.12427 2.93324
279 1 32.5092 23.8986 4.64629 3.05206
714 2 32.0167 23.9475 7.05306 2.65797
280 1 35.0169 25.5877 5.76717 3.71818
351 1 37.6854 24.2737 4.72987 1.3509
786 2 36.5614 24.6393 7.87144 2.48255
352 1 39.8634 25.2153 5.95086 1.26695
423 1 42.3986 24.2166 5.90353 3.1943
858 2 41.7039 23.9158 8.36036 4.39343
424 1 44.8918 25.7413 5.90616 2.50463
439 2 34.4042 3.63938 11.5486 2.14655
511 2 25.0725 28.0864 11.4567 3.14604
583 2 29.4686 27.2209 10.7957 1.71598
655 2 20.1479 3.73945 11.3023 5.04625
727 2 39.3913 27.6212 10.8656 2.44748
799 2 29.2658 3.70906 11.2811 2.46547
5 1 8.12038 4.46318 9.78384 3.53121
6 1 11.2468 5.55786 9.57834 3.13352
7 1 11.3847 6.23278 12.5212 2.76291
440 2 8.57217 4.53987 12.4982 2.4604
451 2 8.80872 6.69709 10.4269 2.99107
77 1 14.0407 4.85598 8.36308 3.14401
78 1 15.6938 6.25939 9.2657 3.21252
79 1 16.1499 5.82767 13.0192 2.89938
512 2 14.0924 4.90897 11.0269 2.55026
523 2 12.845 7.98001 11.274 2.61114
149 1 18.4786 4.85309 8.09045 2.73149
150 1 20.1834 6.08291 9.95771 2.7211
151 1 20.224 5.73206 12.5456 2.94154
584 2 17.5205 4.67269 11.1651 2.37101
595 2 17.7064 6.91409 10.3171 3.15366
221 1 22.8317 4.19096 9.46188 3.22171
222 1 26.0049 5.91754 10.3017 2.62836
223 1 25.3686 6.3207 13.4457 2.60731
656 2 23.9399 5.23064 11.6129 2.76801
667 2 22.3787 8.1296 11.386 6.06143
293 1 28.3838 5.24107 9.31089 2.90591
728 2 26.7736 4.18356 11.8393 5.09219
739 2 27.2332 8.1516 11.3099 2.01615
294 1 30.8708 6.70127 10.0171 3.00672
295 1 29.2009 6.14151 12.9448 3.7937
365 1 32.9963 4.16367 9.2855 0.91605
800 2 32.0143 4.22398 12.1859 2.37008
811 2 32.9201 7.49025 11.8013 3.44268
366 1 34.2428 6.172 10.0999 1.0921
367 1 34.3928 6.32162 13.0477 2.75335
17 1 11.065 9.50063 8.60532 1.42736
452 2 10.4207 8.65013 11.1213 5.39012
463 2 38.6061 11.8914 10.4444 2.88455
18 1 13.2794 10.2071 9.90401 2.65758
19 1 12.4524 10.1912 12.7648 2.57747
29 1 13.266 14.0649 8.05592 1.33056
89 1 15.6031 9.27158 9.40677 2.79282
464 2 13.7563 13.4036 11.4679 2.02853
524 2 14.8377 8.78716 12.1957 2.77228
535 2 15.8754 12.0262 10.8444 2.47364
90 1 18.4746 9.62623 9.89924 3.53847
91 1 17.4382 9.81546 12.8862 3.02134
101 1 18.5365 12.5339 9.26892 1.21464
161 1 21.1879 8.59282 9.07876 3.42196
536 2 17.5386 13.3803 11.8003 6.55394
596 2 19.8994 8.95914 11.6895 2.65577
607 2 19.8103 12.2106 11.7508 2.33774
162 1 23.071 10.1945 9.9307 1.01456
163 1 22.8735 9.99941 12.4679 3.38171
173 1 22.1298 12.3371 9.02119 3.37052
233 1 25.1118 8.99508 7.47985 3.07021
608 2 22.8958 12.9566 11.8292 1.82682
668 2 24.8921 8.26712 11.1924 2.2305
679 2 25.5057 11.004 11.3189 2.8381
234 1 27.1023 10.2923 9.19643 3.05169
235 1 27.6929 10.6956 13.6469 2.61721
245 1 27.3323 13.0368 9.81356 2.30433
680 2 27.4569 13.5151 12.7216 3.03715
305 1 30.0226 8.82217 8.92794 2.85131
306 1 32.236 10.4259 10.6594 2.77
307 1 32.0786 10.1001 13.2426 1.15991
317 1 31.6386 12.5289 8.85353 3.03847
740 2 30.5516 8.61689 12.1712 1.83944
751 2 29.9617 11.2889 11.495 2.03159
752 2 31.8425 12.3873 12.5395 4.33761
377 1 34.6234 8.70662 9.06475 1.19944
378 1 37.0294 9.62458 9.32267 3.29066
379 1 37.266 10.118 12.4846 3.04121
389 1 36.5479 13.2552 8.71007 2.45974
812 2 35.0813 9.84427 11.3735 2.71674
823 2 33.8777 13.0158 10.5681 2.69839
824 2 36.7628 12.311 11.7467 2.74848
30 1 16.1683 14.1057 9.76082 3.36439
31 1 16.5064 14.4998 13.0686 4.92088
41 1 15.5792 17.0386 9.05391 2.95729
476 2 15.0556 16.4806 12.0306 2.24603
102 1 20.4193 14.197 9.5582 2.8293
103 1 20.6997 14.5554 14.0161 2.91594
113 1 20.2612 17.1827 10.4223 3.11691
547 2 17.5592 16.0421 11.5818 2.86461
548 2 20.4746 17.162 13.2069 2.81874
174 1 24.4647 14.1948 10.2843 3.44011
175 1 25.2008 14.3144 13.4022 3.15081
185 1 23.9193 16.856 9.19508 3.24882
619 2 23.0412 15.311 11.7237 2.50429
620 2 25.5482 17.1895 10.993 2.10473
691 2 28.2196 15.792 10.7603 2.90481
246 1 29.7892 13.9234 10.1388 1.35469
247 1 29.7846 13.8842 12.9725 1.21431
257 1 29.8228 17.1714 9.54597 3.29572
692 2 29.3794 17.0067 12.9411 2.00673
763 2 32.2185 15.5832 10.9438 3.37989
318 1 34.7785 15.0913 10.3004 3.21071
319 1 34.9285 14.2052 12.6486 1.405
329 1 34.9515 17.5116 9.64448 3.28957
764 2 35.069 17.1468 12.43 4.60552
835 2 36.9394 15.8926 11.4827 5.95123
390 1 39.2957 13.9219 10.1064 4.04796
391 1 39.1625 14.3592 12.5797 3.0447
401 1 38.9087 17.4057 9.6049 3.24954
475 2 41.0914 15.6617 10.4569 2.42345
836 2 39.795 16.7428 12.1965 5.5724
42 1 17.5756 18.8626 9.96045 2.61142
43 1 18.0992 18.8496 13.2884 2.51831
53 1 18.3978 21.1711 8.80565 2.9375
54 1 20.2004 22.8911 10.2533 3.38208
55 1 20.8362 22.9549 12.8221 1.65274
488 2 17.4794 21.1858 11.5626 2.11039
559 2 20.5786 19.641 11.557 2.71719
114 1 22.4738 18.5829 10.5396 1.3765
115 1 22.955 18.5783 13.1216 3.0716
125 1 23.363 20.4481 8.88846 3.37164
126 1 25.5167 22.724 10.1698 3.89572
127 1 26.3765 22.2285 12.9902 2.61443
560 2 21.8649 21.4328 10.9248 3.05786
631 2 24.7082 19.1171 10.9769 2.73202
186 1 27.5716 18.5123 9.97392 3.89579
187 1 27.1959 18.6756 13.2478 2.94331
197 1 28.6788 20.5917 8.49517 2.63914
632 2 27.4906 20.9073 11.3443 3.22896
198 1 29.7799 22.9713 9.56949 2.97534
199 1 29.6855 22.4812 12.433 2.43591
258 1 32.63 18.6815 9.68381 2.96426
259 1 32.4157 18.1315 12.8156 2.56227
269 1 32.0828 21.0046 8.58015 3.19361
703 2 30.7369 19.8205 10.0968 6.70126
704 2 32.0805 21.9102 11.4976 2.55746
270 1 34.323 22.7549 9.32358 2.76808
271 1 34.6384 22.141 12.392 3.85452
330 1 36.8745 18.9942 10.3588 1.05164
331 1 37.2938 18.8104 12.5355 3.13188
341 1 36.6786 22.0429 8.87232 1.19941
775 2 33.8924 20.5554 11.4228 4.07127
776 2 37.4405 21.2143 11.941 4.8269
342 1 39.1508 22.6087 9.85506 2.60628
343 1 39.0439 22.8682 12.5186 1.48833
402 1 41.5102 18.5101 10.7363 2.92416
403 1 41.3026 18.6931 13.1256 2.91207
413 1 41.6698 21.1558 9.76984 3.16374
847 2 38.9616 19.7061 11.0284 5.25621
848 2 41.3824 21.9558 12.3288 5.50979
414 1 44.6722 22.7885 9.43206 3.47163
415 1 44.3732 22.5277 13.3881 3.30137
487 2 43.1869 20.0749 11.721 2.45772
65 1 20.6788 25.4197 8.84039 3.19431
500 2 21.2512 25.3423 11.7305 3.00977
66 1 23.4994 26.5304 10.4255 3.53636
67 1 22.1958 26.9375 13.2751 3.45892
137 1 25.2539 25.4804 9.59137 1.41741
571 2 23.1644 23.7323 11.0912 1.89797
572 2 26.4362 25.0791 13.1661 1.87347
138 1 27.0571 27.1454 10.0702 2.93528
139 1 27.5565 28.0887 13.143 3.10685
643 2 27.7628 24.2994 11.6351 2.36253
209 1 30.0266 25.1321 8.63148 2.85127
210 1 32.3352 26.9766 10.1017 3.39679
211 1 32.2093 26.4036 13.0081 1.47994
644 2 29.314 25.6311 13.1807 1.76148
715 2 31.9562 24.7261 10.8639 2.68604
281 1 34.6229 25.6493 9.14511 2.65219
282 1 36.7162 26.1101 10.4299 1.25683
283 1 36.3149 27.5918 12.4206 3.24914
716 2 34.673 25.5358 12.1637 4.39188
787 2 36.9089 23.4865 10.7828 4.38127
353 1 39.0137 25.9936 8.7855 3.08735
354 1 41.9501 26.3263 9.53678 2.90508
355 1 41.6979 26.7903 12.842 2.91809
788 2 40.7392 24.2699 10.7272 1.97938
859 2 43.1112 22.9946 11.2678 3.18313
425 1 44.4929 25.1841 8.66392 1.13294
426 1 46.2184 26.4148 10.4843 1.0928
427 1 45.9024 26.0838 12.8261 3.76389
499 2 46.404 23.9138 11.5574 6.08308
860 2 43.9404 24.8703 11.8524 2.87696
441 2 37.165 5.40101 14.7554 1.80601
442 2 11.0979 5.78619 15.9522 2.88554
8 1 13.6046 7.43506 13.7424 3.34437
9 1 13.5001 7.24639 16.4306 2.03557
513 2 13.621 4.97884 14.8955 4.72751
514 2 15.8805 5.64825 15.8044 6.01677
80 1 18.3388 7.51579 14.0498 2.82748
81 1 17.9823 7.53515 16.7219 2.85591
585 2 32.6606 28.9141 14.3375 2.84339
586 2 21.1411 6.29415 14.9355 2.79738
152 1 22.8577 7.63225 13.8073 2.67947
153 1 23.5541 7.70987 16.0804 1.33836
657 2 23.2305 4.98651 14.9272 2.79816
658 2 25.773 6.88635 16.9295 3.49261
224 1 27.9528 8.22368 14.8636 2.9801
225 1 27.5424 7.72696 17.6742 4.54163
729 2 27.2118 5.01684 15.1713 2.96983
296 1 32.2922 7.69318 14.1246 1.59976
297 1 32.1503 7.36087 16.8396 2.41661
730 2 30.0275 7.19567 15.1834 3.10333
801 2 32.2277 5.56438 15.1244 5.21056
368 1 37.1088 7.58602 12.9711 3.7765
369 1 37.0351 7.17062 16.553 3.5075
802 2 34.5392 6.07953 15.4861 2.9808
453 2 11.1417 8.7473 13.9779 5.7365
10 1 15.6637 8.47674 17.7724 3.12635
20 1 15.6486 11.7531 14.0374 2.99792
21 1 15.6102 11.1667 16.4868 2.99136
454 2 12.8595 9.98995 15.6553 2.76246
525 2 16.141 8.17914 14.8135 5.23714
22 1 18.6495 12.8498 17.8261 1.25239
82 1 20.4788 8.59771 17.6065 3.15589
92 1 20.8148 12.2724 14.4602 2.87455
93 1 20.2285 11.2539 17.076 1.55077
526 2 18.3652 10.5728 15.5029 2.79461
537 2 18.21 13.4762 14.3179 3.29331
597 2 20.2691 9.61846 15.013 2.81797
94 1 22.989 13.1151 18.1746 3.28199
154 1 25.1431 9.30829 17.2032 3.08687
164 1 25.3674 11.7243 14.2301 1.21156
165 1 25.0836 12.0062 16.4695 3.13882
598 2 22.6151 10.7024 16.6123 2.61816
609 2 23.3066 12.4385 15.1226 3.39933
669 2 25.4209 9.01137 13.4344 2.95666
166 1 27.5394 12.6834 18.0729 3.36221
670 2 27.4535 10.5112 16.0872 5.72463
681 2 27.9295 13.2386 15.3895 5.25751
226 1 29.922 8.37568 18.1079 1.1221
236 1 29.843 11.9314 14.2694 1.11128
237 1 30.3835 11.5945 16.8975 3.06291
238 1 32.9152 13.1298 17.9517 2.64229
741 2 30.7486 9.11203 15.27 6.08372
742 2 32.1603 10.6008 15.6635 5.77778
753 2 32.6 12.7516 15.1078 3.1685
298 1 34.9271 8.7438 17.7151 2.96361
308 1 34.1635 11.8892 13.0745 3.26974
309 1 34.6987 11.0324 16.6735 3.79647
310 1 37.322 13.6137 17.7693 3.02873
813 2 34.8887 9.26744 14.7893 2.81838
814 2 37.7064 9.48626 15.8684 2.36432
825 2 36.9562 12.3655 14.7395 2.20213
370 1 39.6659 9.08491 17.4294 1.62857
380 1 38.8878 11.7106 14.1253 3.18198
381 1 39.4153 11.6071 16.7268 1.34754
382 1 41.4755 13.0321 17.6561 1.13978
465 2 13.583 12.6496 14.9852 3.45752
466 2 16.163 14.1099 15.4066 6.06157
32 1 18.3374 16.2844 14.3233 1.08006
33 1 18.3362 15.3696 16.7113 2.56076
34 1 20.1719 17.5793 18.4103 2.82062
538 2 21.152 13.5522 16.7322 3.33632
549 2 21.0115 17.2563 15.6473 5.15613
104 1 23.4448 16.1392 15.2172 2.64514
105 1 22.4007 16.1157 17.4851 2.6844
106 1 25.7541 17.2947 18.1623 2.46149
610 2 25.481 14.7272 15.8928 6.01539
621 2 25.3464 17.6749 13.7261 5.49094
176 1 27.1512 15.5591 14.3351 3.01393
177 1 27.8454 15.4327 17.6021 3.45958
178 1 30.079 16.7502 17.7058 2.78335
248 1 31.9987 15.1437 13.5696 3.36785
249 1 32.4102 15.9674 16.4251 2.93729
682 2 30.0311 14.8512 15.4211 2.93371
693 2 30.2368 17.461 15.0083 2.70125
250 1 35.095 17.0744 17.4999 3.45841
320 1 37.1432 16.0984 13.9608 3.24941
321 1 37.6429 15.9534 16.7293 1.74978
754 2 35.0327 14.2251 16.192 1.86535
765 2 33.9413 16.9179 14.5699 3.18016
322 1 39.9212 17.1625 18.1508 3.61154
392 1 42.0147 15.2302 14.0561 3.6697
393 1 42.7349 15.4479 16.5892 3.90312
826 2 40.2273 15.0329 16.1109 3.08302
837 2 39.0334 17.3193 15.2918 2.5921
394 1 44.1119 17.6278 17.2823 1.52856
477 2 44.114 17.3091 14.8627 5.7677
44 1 20.4976 19.2709 14.5643 2.72915
45 1 20.6915 20.0272 17.2165 1.19975
478 2 18.0585 18.195 16.2743 5.7465
490 2 20.6613 22.2155 15.8117 2.17288
46 1 23.3204 21.0378 17.7144 2.87729
116 1 25.0344 19.9255 14.2996 3.4082
117 1 26.4518 19.6538 17.4074 3.34121
550 2 23.1721 19.1541 15.8639 4.89016
561 2 22.7726 21.0263 14.0058 1.78973
562 2 25.0881 21.3724 16.1406 3.76365
118 1 28.531 20.8173 17.7124 1.19624
622 2 27.2669 17.9614 15.7585 3.16588
633 2 28.0294 20.2074 15.5169 6.04725
188 1 29.9304 19.9279 13.2567 3.25012
189 1 30.3258 19.5524 16.8619 2.60531
190 1 32.0849 21.2902 17.7395 1.18504
634 2 30.115 22.5648 16.9772 2.93039
694 2 32.5571 18.1695 15.595 6.57607
705 2 31.577 21.1868 14.1985 2.99949
260 1 34.4856 19.4627 13.8471 2.55367
261 1 34.0051 20.0782 16.6069 3.00126
262 1 36.98 21.2546 17.4966 2.83185
706 2 33.6797 22.1125 15.1476 2.4009
766 2 37.0235 18.6688 15.3196 2.97864
777 2 36.5777 21.4224 14.5503 2.44879
332 1 39.6268 20.5368 13.7095 3.5325
333 1 39.5456 19.503 17.0466 3.21104
334 1 41.6597 21.6385 17.5293 2.88129
778 2 38.4642 22.0816 15.988 5.67574
838 2 41.9165 18.5275 15.95 2.97622
849 2 41.7854 22.035 14.7957 6.93485
404 1 44.0849 20.0716 14.3069 3.0404
405 1 44.4324 20.2759 16.8276 3.51482
406 1 46.9704 21.4558 18.0525 2.84759
489 2 18.7913 21.1327 13.6598 2.3861
850 2 43.9487 23.4831 15.7308 1.64877
56 1 22.7394 24.2094 14.0821 3.0561
57 1 23.141 23.7852 17.0448 2.6853
58 1 25.3156 25.73 18.6081 3.0824
502 2 22.4393 26.007 15.9467 2.69174
573 2 24.9438 25.306 15.8324 2.97449
128 1 28.137 23.3718 14.8243 4.04427
129 1 27.3935 24.1284 17.1645 2.95881
574 2 27.2616 26.5969 15.1668 3.18027
130 1 30.202 25.4544 17.0214 2.9385
200 1 32.261 23.711 13.4177 2.89545
201 1 32.655 24.3162 16.7543 2.76683
645 2 31.4039 25.4614 14.9048 5.55993
646 2 32.4382 27.0662 16.5793 2.29262
202 1 35.1718 25.2479 17.5998 2.89908
272 1 36.5736 23.9467 13.4746 3.04637
273 1 36.8245 23.9638 16.1413 1.09707
717 2 34.0648 25.2744 15.0037 4.36662
718 2 37.4288 26.581 16.0702 6.5206
274 1 39.131 25.1844 17.381 3.04075
344 1 41.3092 24.1301 13.5496 2.76961
345 1 40.4454 23.6777 16.4038 3.1053
789 2 38.7692 25.2448 12.3564 2.38083
790 2 41.4713 26.607 16.6076 2.79873
346 1 44.2974 24.9443 17.8705 3.30673
416 1 46.4527 24.021 14.0019 1.27944
417 1 46.5108 24.1527 16.7062 2.58417
861 2 44.0973 26.03 14.8906 2.36087
862 2 46.2041 27.5123 15.7173 2.36242
418 1 49.0163 24.3465 18.0958 3.00561
501 2 48.4716 24.8629 14.9507 2.52816
68 1 24.9654 27.0139 14.1272 3.6045
69 1 25.1933 27.768 16.9091 3.00395
70 1 27.6876 28.9613 17.5154 3.34691
140 1 30.1908 27.9809 13.9397 0.993638
141 1 29.9612 27.983 16.9177 1.11478
142 1 32.0501 29.3317 17.86 2.98768
212 1 34.6866 27.3538 14.5614 3.6656
213 1 34.8427 28.7666 16.8552 3.25514
214 1 37.2612 29.6063 17.5776 1.6077
284 1 39.3385 27.9819 13.3672 2.61732
285 1 39.1749 27.8313 15.9702 3.96446
286 1 41.7292 28.6914 17.8058 3.16075
356 1 43.6103 28.2333 13.6885 1.26209
357 1 43.9482 28.2294 16.4846 3.47365
358 1 46.906 29.2381 17.8532 3.09958
428 1 48.277 28.2813 14.0629 2.98488
429 1 48.63 27.8125 16.799 3.36267
430 1 51.6476 29.1875 18.0929 2.67744
443 2 39.5724 6.89473 18.3995 2.69778
444 2 13.4516 8.72164 20.2923 2.26286
515 2 29.1452 30.41 18.2208 5.35425
516 2 18.3569 6.4291 19.3341 3.09724
587 2 20.556 6.34672 18.1585 3.15888
588 2 22.5005 7.46059 19.0623 2.76398
659 2 24.7201 6.40754 19.2002 2.75072
660 2 28.8984 7.28661 20.0947 4.74735
721 2 19.0812 0.00584202 -0.265723 2.64051
731 2 29.2987 5.84604 17.914 5.91632
732 2 32.7222 6.92372 20.0789 3.20991
793 2 37.2046 7.5753 22.2879 2.61879
803 2 49.0118 30.4727 18.009 2.73447
804 2 37.0968 7.09174 19.2414 2.73881
11 1 15.9726 8.80783 20.8726 2.68411
455 2 41.7475 10.5958 18.8887 1.98622
456 2 15.9062 12.2445 19.63 2.15795
12 1 18.5769 10.6266 21.4325 2.8704
23 1 18.4675 13.0093 20.4594 1.22107
83 1 20.0656 8.70014 20.4999 1.2242
527 2 17.9529 10.1023 18.9199 2.64024
528 2 20.9373 11.7402 19.1766 6.69616
84 1 23.0222 9.62478 21.5597 3.34033
95 1 22.9182 12.5098 20.669 2.90417
155 1 25.3722 8.79733 20.6481 1.29837
599 2 22.2212 9.6987 18.9876 2.3287
600 2 26.1112 11.2295 20.4739 3.00595
156 1 27.69 9.71236 21.5203 3.73021
167 1 27.5382 13.3062 20.7235 1.41197
671 2 27.5245 9.54108 19.4017 6.34966
227 1 30.6612 9.03419 21.0425 2.93756
228 1 32.6495 10.8827 21.7308 2.86702
239 1 32.5483 13.1102 20.529 3.65675
672 2 29.2289 10.9666 19.6634 2.74847
743 2 32.0069 10.035 19.0092 2.91902
299 1 35.0567 9.23006 20.3163 3.0997
300 1 37.3056 10.5165 21.6558 2.97728
311 1 37.3259 13.6651 20.4848 3.90347
733 2 20.7082 4.30661 0.0668375 2.52555
744 2 35.4913 11.7288 18.8995 2.06032
815 2 37.9635 10.5826 18.3046 3.30233
371 1 39.0324 9.00768 20.0624 3.80619
372 1 41.8192 10.7827 21.8917 3.03277
383 1 42.0351 13.3707 20.2166 2.80372
805 2 25.3024 3.94448 -0.40102 3.08065
816 2 39.41 11.1826 20.2954 3.00208
24 1 20.2891 13.8707 21.9385 2.96279
35 1 20.1277 16.5575 21.2015 3.2416
468 2 17.9027 15.7267 19.4823 3.10942
539 2 20.4403 14.7017 19.321 2.41609
96 1 25.4941 14.868 22.016 2.93667
107 1 25.6319 17.4676 20.963 1.00555
540 2 22.7255 15.8257 20.2964 1.67379
611 2 24.9479 15.1973 18.9991 2.6931
612 2 27.8367 15.6128 19.83 5.29078
168 1 29.5479 14.0933 21.168 1.58321
179 1 29.1153 17.3692 21.1273 3.63401
683 2 30.2194 14.1124 17.6116 2.46008
684 2 31.5625 15.5241 20.0989 1.93927
240 1 34.4127 15.3755 22.5353 4.55872
251 1 34.0428 17.3888 20.5245 2.93749
745 2 37.8716 15.2586 22.1161 2.37523
755 2 35.1196 15.0348 18.7363 2.92256
756 2 36.3998 16.1543 19.9815 5.81903
312 1 40.8488 15.1745 22.3286 4.74644
323 1 39.0108 17.3379 20.6422 3.55284
817 2 42.6683 16.0215 21.8739 6.58079
827 2 38.8636 15.0539 18.83 3.50225
828 2 42.7095 15.1755 19.2303 5.02384
384 1 44.5232 14.7291 21.5217 3.21785
395 1 44.2105 17.2516 20.2486 3.24003
467 2 16.0113 14.0388 17.6845 2.69684
480 2 20.9516 19.8026 19.4728 4.71144
36 1 22.6086 18.5994 21.9957 2.61376
47 1 22.9504 21.0611 20.4724 2.73366
48 1 25.583 21.7533 21.6692 1.20624
551 2 22.818 18.4898 18.3833 2.11988
552 2 24.7363 19.3619 20.2197 4.26128
563 2 24.4338 23.0154 19.2504 2.8027
108 1 26.63 19.3003 21.8244 1.42183
119 1 27.8044 21.4622 20.1914 2.34452
623 2 28.1081 18.5305 19.406 5.84249
120 1 29.8527 23.0864 21.8676 1.1978
180 1 31.8116 18.5435 21.2602 1.12795
191 1 32.4887 21.0334 20.4837 2.81866
624 2 30.1291 20.4408 20.3048 2.38813
635 2 29.9825 23.8356 19.0096 2.59871
695 2 32.5055 18.3558 18.0351 2.34856
192 1 34.5516 22.0549 21.4331 1.16528
252 1 36.5618 17.6272 21.7712 1.2367
263 1 37.0415 20.9094 20.8361 3.76789
696 2 34.5288 19.9888 19.1238 2.11177
707 2 34.3323 22.3048 18.7076 2.62167
767 2 37.1853 18.2708 19.2308 3.00928
264 1 39.1705 22.9998 20.8176 2.81226
324 1 42.0737 18.2342 21.6271 3.40722
335 1 41.8459 21.5583 20.1372 2.92124
757 2 40.0802 19.8358 21.7927 2.10323
768 2 39.1562 21.0953 19.0527 2.99572
779 2 38.2685 22.9293 18.091 5.44054
839 2 41.5567 19.3072 19.0507 2.94438
336 1 44.1495 22.7238 21.8212 3.26233
396 1 46.5229 19.044 22.2509 2.86272
407 1 46.447 21.8738 20.612 3.60351
479 2 46.4383 19.1688 19.0737 2.3422
829 2 43.9003 20.1449 22.3963 2.94978
840 2 44.1379 19.3419 19.0913 3.05019
851 2 44.0862 22.84 18.8754 6.68898
408 1 49.4429 23.0499 21.887 3.44626
491 2 20.6965 22.0675 19.4368 4.4213
59 1 24.991 24.7961 21.0454 3.51861
492 2 22.8231 23.6742 20.8584 5.76362
503 2 50.6457 26.8042 19.146 2.89794
60 1 28.4468 26.1852 21.7291 3.35145
564 2 27.5533 24.0662 20.0779 2.08622
575 2 28.1218 26.7009 18.973 2.67241
131 1 30.3655 25.3229 20.7006 1.37838
132 1 32.5199 26.4242 21.7365 1.03503
636 2 32.0982 24.8273 19.7781 5.46073
647 2 33.1756 26.8018 19.0574 1.90818
203 1 34.3519 24.6734 20.7652 2.77746
204 1 36.4129 25.9819 21.5932 3.02014
708 2 36.3996 23.1107 19.8509 2.2151
719 2 37.0869 26.397 18.2337 3.05118
275 1 39.4917 25.6482 20.3761 2.74357
276 1 41.3178 27.0988 20.9128 3.26008
769 2 28.426 16.0213 0.518603 2.61143
780 2 42.1058 23.7137 19.9259 3.21962
791 2 41.9827 26.2794 18.6194 2.83913
347 1 44.1554 25.3414 20.3842 1.19892
348 1 46.0343 25.9157 21.5989 3.08742
841 2 46.706 23.6694 22.2102 2.69147
852 2 46.5599 23.8918 19.3282 5.10017
863 2 46.5506 26.8331 18.9158 2.06854
419 1 48.7778 25.6695 20.5568 2.73419
420 1 50.9671 26.6251 22.039 2.82328
504 2 24.6415 28.312 19.989 2.78246
71 1 27.7946 29.0086 20.4642 2.37194
72 1 29.7979 30.5835 21.4802 3.0586
143 1 33.2452 28.6514 20.8229 2.57684
576 2 30.1498 28.2357 19.8934 5.5022
144 1 34.3488 31.0702 21.775 2.4129
215 1 37.0382 30.316 20.5022 3.85989
648 2 35.6771 27.9227 19.0184 2.19293
216 1 40.1768 31.3394 21.5466 3.23919
287 1 42.9783 29.3587 20.6467 3.16619
720 2 39.3742 27.8469 18.4196 2.93729
288 1 30.2577 23.0557 -0.408729 2.79284
359 1 45.3195 29.476 20.4485 2.87612
781 2 30.4458 19.6447 -0.386974 2.84137
792 2 44.0639 27.2479 18.5828 5.55835
360 1 48.7225 30.7489 21.2662 3.89839
431 1 51.128 29.6167 20.8174 2.62279
853 2 34.9275 20.0415 -0.072903 2.08305
864 2 48.5477 28.8081 19.8629 2.75183
432 1 53.8517 30.684 20.82 2.94427
ITEM: TIMESTEP
325
ITEM: NUMBER OF ATOMS
864
ITEM: BOX BOUNDS xy xz yz pp pp pp
-7.8394778369304252e-01 5.6351101728913768e+01 1.4338001101901074e+01
-7.4524943348513328e-01 3.2330127766202985e+01 1.4274230483661688e+01
-6.5055941236757353e-01 2.2659161358200606e+01 8.2412308122168501e+00
ITEM: ATOMS id type x y z f_grace_gamma
433 2 27.6348 -0.379907 -8.85508e-05 2.10462
434 2 1.63463 0.0403952 0.879779 3.10584
435 2 16.1126 24.8203 3.08203 3.85015
445 2 1.91782 2.95381 -0.544907 2.07422
1 1 3.85062 2.13255 1.0692 3.19271
2 1 6.58858 4.14195 1.5715 2.61373
505 2 17.8263 7.43807 22.2749 2.43157
506 2 6.31136 0.830959 0.675948 2.89552
507 2 20.8589 25.3377 3.51462 2.63925
517 2 21.7131 11.728 22.5419 5.3718
73 1 8.99407 1.90209 1.09614 2.95401
74 1 11.7814 2.75995 2.34936 2.76907
577 2 24.0493 23.6761 -0.4716 2.91029
578 2 11.0072 0.697733 0.269099 2.79285
579 2 26.0402 25.1439 3.22559 5.62133
589 2 10.6598 3.81996 -0.374914 2.40045
145 1 13.6549 1.34617 1.22646 1.22569
146 1 15.2795 3.53035 1.60231 3.32929
649 2 27.6757 22.9558 1.00809 6.03341
650 2 15.8277 1.44221 0.43978 4.89276
651 2 30.802 24.8229 3.1657 2.85681
661 2 29.8977 11.4108 22.1563 5.6928
217 1 18.7823 1.94314 1.35236 3.09376
218 1 20.7768 2.976 2.47575 1.19338
722 2 20.8695 1.4641 0.144502 3.33379
723 2 20.9114 0.55676 2.86722 2.46734
289 1 23.172 2.31316 1.65928 1.16485
290 1 25.4417 3.60582 2.22507 1.21349
794 2 25.5725 2.16392 0.12294 2.57977
795 2 24.6973 1.10251 2.89985 2.53487
361 1 27.8922 1.94062 1.7374 3.92556
362 1 30.665 3.11932 2.57546 3.33359
13 1 6.24747 6.93042 1.75308 2.81184
446 2 3.81251 5.27445 0.106481 3.19913
447 2 4.25769 4.90226 3.64862 3.58316
457 2 46.4049 15.8162 22.3969 5.37956
14 1 8.75157 7.66587 2.55261 1.27186
85 1 10.9499 6.00765 1.34861 3.5818
518 2 9.19669 5.51733 -0.120861 2.83535
519 2 9.07027 4.56048 2.90636 3.0674
529 2 8.33068 8.55305 0.0596887 2.6567
86 1 13.4595 8.14093 2.22444 3.17271
157 1 15.2929 5.60803 0.501529 3.31497
590 2 13.0633 3.60498 -0.0295249 6.19166
591 2 13.9828 5.87521 2.8451 2.45271
601 2 13.8473 7.58641 -0.332345 5.02223
158 1 18.903 7.62528 2.08789 1.53428
229 1 20.7607 5.922 1.72674 1.26974
662 2 17.8976 4.49864 0.255304 2.58951
663 2 18.4577 4.49923 2.3754 2.33717
673 2 17.3149 7.19094 -0.13478 2.69024
230 1 22.9225 7.67324 1.95137 3.52819
301 1 25.4739 5.80851 1.53736 0.998115
734 2 23.0789 4.78873 -0.206783 2.39565
735 2 23.1062 4.76221 3.02407 5.5434
302 1 27.09 7.77011 1.35402 1.17206
806 2 27.8355 4.25395 -0.0027636 2.84572
807 2 28.7647 5.77568 2.54262 2.06929
373 1 30.4776 6.27628 0.563142 3.09712
374 1 32.1422 7.50895 2.39699 0.970957
458 2 33.9619 9.51252 0.117568 2.769
25 1 8.49061 10.7638 1.73874 2.90862
26 1 10.8247 10.5895 2.46918 1.10138
470 2 8.41504 13.6198 0.333515 2.38381
471 2 36.8416 12.2521 4.1141 2.42731
530 2 10.8279 8.10928 0.212063 2.95103
531 2 11.0635 7.93459 3.22857 6.20804
541 2 9.9376 11.7562 0.21757 6.26866
97 1 13.6731 10.4851 0.885691 2.69023
98 1 15.1142 12.4433 2.72219 1.68256
542 2 12.8818 13.0726 0.505297 5.96533
543 2 12.8185 11.9725 3.47446 5.58678
602 2 15.9588 8.64858 0.195624 2.95508
603 2 15.3719 9.29537 3.84787 3.03757
613 2 15.3426 11.9396 -0.251673 2.41607
169 1 17.9445 10.7261 0.909559 4.00134
170 1 20.443 11.2391 2.14341 1.19303
614 2 18.0403 13.4662 0.465526 2.59308
615 2 19.1858 13.4096 2.78969 2.72467
674 2 19.5716 9.1352 0.531593 4.96251
675 2 19.4191 9.58887 3.2493 5.689
685 2 34.1345 19.5032 22.5805 7.91828
241 1 22.4808 10.0582 1.741 1.41016
242 1 25.2152 11.084 2.50433 2.60973
686 2 38.1089 19.9031 22.5519 2.03688
687 2 23.0261 13.0645 2.23243 2.55692
746 2 25.342 9.60982 -0.367332 5.55435
747 2 24.9528 8.27942 1.55725 5.27958
313 1 27.6757 10.0778 0.862942 1.44053
758 2 27.916 12.939 1.06588 2.7686
759 2 29.224 12.9961 3.53494 5.28746
314 1 30.3173 11.4678 2.42163 3.12109
385 1 31.9613 9.89765 1.58634 3.03792
818 2 30.2263 9.51471 -0.354849 2.75552
819 2 29.2785 8.40157 2.13426 2.66903
830 2 32.5932 13.4096 0.139115 2.92717
831 2 32.4481 13.8273 3.93508 2.85961
386 1 34.2098 12.2756 2.40603 3.98159
459 2 6.64777 9.27204 2.92336 2.75379
469 2 49.0075 20.7764 22.6458 2.67072
37 1 10.8065 13.603 1.82877 1.27982
482 2 10.9086 17.4264 1.62679 1.97918
38 1 13.4009 15.0865 1.68851 3.64123
109 1 15.8165 14.4578 1.11918 2.78681
553 2 27.3336 23.7205 22.5897 3.81641
554 2 16.3854 17.6023 0.0210331 6.48502
555 2 16.5902 17.1896 2.90226 2.53685
110 1 19.1768 15.887 1.9792 4.10046
181 1 20.8181 13.4881 0.894224 3.02673
625 2 17.9238 15.4905 -0.531732 2.89208
626 2 20.766 16.7941 0.720014 3.29442
627 2 20.135 17.1661 4.01934 6.62953
182 1 22.9689 16.0852 2.48961 3.01264
253 1 25.0215 14.5133 1.80138 3.438
697 2 23.6582 14.191 -0.345348 2.48043
698 2 24.9972 17.2692 0.119126 2.05597
699 2 25.0828 17.4504 3.47497 2.86705
254 1 27.3224 15.0516 2.44518 3.00648
325 1 29.9217 14.3313 1.55274 1.32829
326 1 31.4955 16.3724 2.29963 3.55752
770 2 29.5671 17.9481 0.184872 3.17448
771 2 29.4327 16.9047 3.32564 2.77951
397 1 33.9263 15.2826 2.49764 3.51799
398 1 37.3384 15.1084 2.20867 3.06045
481 2 9.81744 15.4634 -0.251665 6.65335
842 2 35.3652 16.5702 0.582037 3.30619
843 2 35.4054 17.3989 3.41675 3.16483
483 2 11.8887 17.2185 3.8714 3.10282
493 2 25.4031 28.3834 22.0941 3.20126
49 1 13.6785 18.3362 1.52689 3.45543
50 1 15.5308 19.5519 2.25049 1.43726
61 1 16.2544 22.0806 1.24233 3.79563
494 2 14.609 21.2841 0.20621 3.84695
495 2 14.4956 21.6048 3.0781 2.40458
565 2 16.7843 20.2586 -0.0757653 5.42928
121 1 18.152 18.6565 1.75129 1.20877
122 1 20.4678 19.3847 1.67476 1.10835
133 1 20.5806 22.4874 1.82774 0.915978
566 2 18.9003 21.2795 0.357801 5.21767
567 2 17.8189 21.165 3.30175 5.17791
637 2 35.843 28.2455 22.6196 2.61401
193 1 23.0944 18.789 1.39897 2.8176
194 1 25.3994 20.0598 1.52949 1.24864
205 1 25.4739 22.6559 1.32403 1.31616
638 2 23.0161 21.326 1.54502 5.74611
639 2 23.1032 22.1343 3.8003 6.81825
709 2 38.7337 28.2286 21.6834 2.44745
265 1 27.2818 18.536 0.901597 4.24288
710 2 27.6637 21.5611 -0.471331 5.60965
711 2 27.5953 20.4143 2.493 6.12046
266 1 30.5013 19.4102 2.5404 1.30012
277 1 29.7106 21.765 2.17463 3.67842
337 1 32.6058 19.332 1.11102 2.95124
782 2 32.6188 21.9603 -0.561271 3.22426
783 2 33.053 20.4901 3.52842 3.03857
338 1 35.5929 20.7252 2.15376 3.32825
349 1 35.1718 22.8861 0.644801 1.13195
409 1 37.1082 18.3272 1.44953 3.51787
854 2 37.7937 20.8475 1.05296 5.72106
855 2 37.5104 21.608 2.74878 8.00453
410 1 39.5548 20.0773 2.25926 3.09837
421 1 39.5808 22.4222 0.167885 4.76467
62 1 18.7042 24.1243 1.86286 2.47342
134 1 23.0565 24.1378 2.02243 2.5939
206 1 28.1512 24.2722 3.27881 3.60287
278 1 32.5426 23.7971 1.76536 2.95093
350 1 37.3064 24.28 1.63423 2.23701
422 1 42.4953 24.2354 2.42946 3.48978
3 1 6.89894 3.27714 4.08806 3.24566
436 2 19.8749 26.006 5.61712 2.18596
437 2 46.8377 26.6016 7.71982 3.31139
438 2 6.89125 3.76735 7.59924 3.04733
75 1 11.5789 3.13319 5.053 2.50734
508 2 9.2831 1.61412 4.9908 6.46461
509 2 23.1388 26.7033 8.36732 3.06685
510 2 10.0341 3.62488 8.75976 6.83845
147 1 15.2645 3.86381 4.6028 4.01003
580 2 14.2066 1.63095 4.25601 3.12165
581 2 13.3314 1.97762 7.11539 2.72273
582 2 16.1293 3.12493 8.18166 2.65912
219 1 21.0363 4.73005 5.15527 2.85137
652 2 18.7566 2.4707 4.75922 2.11201
653 2 18.8366 2.47319 6.92152 2.16301
654 2 21.4182 3.37793 7.59061 1.92132
291 1 25.4378 3.33176 4.76294 2.51221
724 2 22.4238 2.90055 4.21802 2.71593
725 2 23.511 2.09083 5.98639 2.14719
726 2 25.1751 4.14351 7.66204 2.1221
796 2 28.9103 3.50486 4.07544 2.46267
797 2 41.3213 26.6506 7.21398 3.51729
363 1 31.5882 3.46047 5.37991 3.71153
798 2 30.4475 3.6825 8.1138 3.1166
448 2 6.77913 6.84649 4.80347 2.84766
449 2 7.17653 5.31864 6.67422 3.22636
4 1 9.26513 4.6498 5.29534 2.45505
15 1 9.26301 7.34594 5.11197 2.72571
450 2 8.78071 7.2208 7.66307 3.45048
520 2 11.5829 6.01875 4.17522 3.00491
521 2 11.2163 5.2474 6.99616 2.82624
76 1 13.581 5.15561 5.97989 1.26754
87 1 13.9969 7.72269 5.23411 1.25505
522 2 13.469 7.00748 7.87265 7.21304
592 2 16.5384 6.68394 2.21192 2.00458
593 2 16.4361 5.50462 6.47822 5.24504
148 1 18.4146 5.23095 5.27348 2.98068
159 1 17.6694 7.57462 4.79628 2.27901
594 2 17.183 7.48567 7.59679 4.89382
664 2 20.341 7.14459 3.95935 5.56662
665 2 20.6736 7.44091 6.95466 2.52257
220 1 23.6292 5.20052 6.03045 2.68834
231 1 22.6512 7.61366 4.9998 2.79101
666 2 23.491 6.73146 8.56507 2.83195
736 2 25.6465 5.61692 4.07891 2.89516
737 2 25.9998 6.4062 6.71651 3.56219
292 1 28.1684 4.58847 6.89852 3.0828
303 1 27.5491 7.63017 5.40706 2.77673
738 2 27.4575 7.72006 8.24259 2.59702
364 1 33.1551 4.32308 7.0381 1.49746
375 1 32.3387 7.11213 5.1964 3.40329
808 2 29.4107 6.28079 4.88098 2.06514
809 2 30.0733 6.43998 7.12833 2.80791
810 2 33.8292 6.72224 7.77532 4.37483
16 1 11.321 8.96619 6.15091 2.87487
27 1 10.6709 11.688 4.62625 3.21182
460 2 8.72052 10.0704 5.06574 3.28182
462 2 11.4001 12.9705 7.75322 3.2507
28 1 13.5247 12.706 5.97435 2.70135
88 1 16.3684 9.50898 6.56021 1.27194
99 1 15.8444 11.1534 4.87547 3.39365
532 2 12.9433 10.2142 5.14546 2.80125
533 2 13.7483 9.11525 7.62181 3.39915
534 2 15.7087 12.6641 7.34426 3.3219
100 1 18.4144 13.5982 7.5746 4.02234
160 1 19.6998 9.26825 5.74968 2.85522
171 1 20.134 11.8427 4.74401 3.15215
604 2 18.0813 11.3641 3.23431 2.94038
605 2 18.3199 11.3427 6.455 2.95549
606 2 20.0498 11.0465 7.90404 5.25401
172 1 22.9514 13.0545 6.15304 3.383
232 1 25.4674 9.02837 3.87604 3.6431
243 1 25.1491 12.1404 5.76008 3.26222
676 2 22.5548 10.7646 4.05913 2.6635
677 2 22.0879 10.1014 6.69817 2.41269
678 2 24.9391 11.6363 8.45826 3.12584
244 1 27.933 12.3506 5.808 2.74679
748 2 27.775 10.3618 3.24453 5.89136
749 2 27.007 9.86073 5.8783 4.52648
304 1 29.9059 9.20225 5.49194 2.37777
315 1 30.8188 11.6251 5.52815 1.356
316 1 34.3075 13.1057 6.58756 3.22051
750 2 29.8838 11.0284 8.3294 5.56011
820 2 31.714 9.32794 3.97147 5.42252
821 2 32.5065 10.0154 7.25653 2.8772
376 1 35.1382 8.63406 6.37397 3.51691
387 1 33.9992 10.3873 5.108 2.63387
388 1 37.4265 13.7378 6.14492 2.92843
461 2 10.3522 11.1778 7.40784 2.61851
822 2 35.453 11.186 6.9214 2.60539
472 2 11.3196 14.9266 3.96148 3.03823
39 1 13.7968 16.1162 6.16874 2.86623
40 1 16.2962 17.7112 5.67314 3.07888
474 2 41.1342 16.7295 8.47415 3.53269
544 2 17.1619 14.8579 3.91875 1.99714
545 2 16.2711 14.7812 7.03626 3.28961
111 1 18.7015 16.1325 6.09219 4.0587
112 1 20.9719 17.7539 6.24719 3.43497
546 2 18.1837 15.5571 8.53093 6.04864
616 2 21.6726 14.6373 4.16848 3.17871
617 2 20.7749 14.8123 6.69851 2.64243
183 1 22.8662 16.2802 5.39013 4.00824
184 1 25.7977 17.2384 6.1515 3.85168
618 2 22.5255 14.9444 8.76655 3.43835
688 2 26.634 13.2348 3.96979 2.68056
689 2 25.1182 14.6404 6.95279 1.90193
255 1 27.9564 15.9958 5.28005 3.92213
690 2 27.3468 14.8343 7.79447 1.814
256 1 30.5511 15.9042 6.92889 3.68201
327 1 33.6945 15.5749 5.59382 2.93566
760 2 30.5529 14.0113 5.6608 3.24095
761 2 29.4095 13.6995 7.41255 3.12449
762 2 33.3719 15.0355 8.37196 2.29727
328 1 35.5915 17.6568 5.49273 2.82776
399 1 37.764 16.7236 4.94917 1.08429
832 2 35.7001 14.179 4.40252 3.74535
833 2 36.2228 16.2576 7.87177 3.16281
834 2 38.4709 15.9809 7.63138 2.70898
400 1 40.0253 17.4199 6.38703 3.32543
473 2 11.3283 14.8002 6.01456 6.50939
51 1 15.4151 20.0756 5.13702 2.8728
484 2 13.6146 18.4969 4.08787 7.16142
486 2 15.6318 19.9685 9.70281 2.77976
496 2 15.9326 22.7787 4.98553 2.33908
52 1 18.2509 20.8475 5.90835 1.17618
123 1 20.0845 20.7555 4.00854 2.90309
556 2 18.4866 18.5515 4.44872 4.68176
557 2 18.5767 18.6591 7.68775 2.79434
558 2 21.2937 19.5009 8.28518 2.19565
568 2 21.5344 22.985 4.46379 5.27626
569 2 21.092 22.4475 7.39474 1.65916
124 1 23.2395 20.7601 6.26338 4.18397
195 1 25.5978 20.4747 3.83692 1.15278
628 2 22.2159 18.4646 3.75293 2.61044
629 2 23.049 18.4219 6.10882 7.09361
630 2 26.6961 20.3854 8.42684 1.93259
640 2 26.6713 23.0709 4.63579 3.36597
641 2 26.6086 22.4686 7.66203 2.23915
196 1 27.6416 20.6608 5.11749 3.8889
700 2 27.3044 18.1636 4.12971 5.90406
701 2 28.3649 17.9735 6.90856 2.74895
267 1 29.6939 19.5879 4.63036 1.46518
268 1 32.8148 21.0878 5.78442 3.43821
702 2 30.3011 18.1643 7.5669 3.72624
712 2 30.8153 22.0331 3.99953 2.91339
713 2 30.5538 21.5585 6.6323 7.24872
772 2 32.8988 18.2269 4.51812 2.45132
773 2 33.7155 17.5373 7.40763 2.08845
339 1 35.1747 20.5167 4.91871 2.50759
340 1 37.8755 21.627 5.80788 2.39212
774 2 34.7399 19.7669 8.37972 6.23345
784 2 35.5059 23.0404 3.38093 2.68726
785 2 35.3781 22.7984 6.38175 2.53339
844 2 37.5498 19.4519 3.93949 5.43839
845 2 37.7961 18.9766 7.13494 2.95937
411 1 39.7235 20.0596 5.1415 2.54647
412 1 42.2062 21.79 6.84253 2.96095
485 2 42.1296 19.5023 7.30872 2.92626
846 2 39.4134 20.8192 8.15278 2.15446
856 2 39.9211 23.094 3.7068 2.04685
857 2 40.3256 23.1046 7.08445 3.45013
497 2 16.3709 21.7365 6.82528 5.05767
63 1 18.3328 23.4189 4.80194 2.75021
64 1 22.0029 25.4928 6.1302 3.92473
498 2 18.6214 23.9161 7.52794 3.46754
135 1 23.5224 23.9651 4.77976 4.06598
136 1 25.3742 25.1833 6.42293 2.66348
570 2 23.942 23.0046 7.60367 2.32768
207 1 28.4719 24.2664 6.30097 3.25351
642 2 27.6637 24.3043 8.72267 5.64962
208 1 30.9337 25.6902 6.13749 2.77213
279 1 32.8579 23.7424 4.39669 2.67623
714 2 32.4979 23.8164 6.8431 3.18768
280 1 35.1655 25.845 6.21671 3.76461
351 1 37.7281 24.3383 4.87464 2.44246
786 2 36.9148 25.031 8.09449 3.20705
352 1 40.152 25.0649 5.77999 4.05453
423 1 42.582 24.4826 5.95525 1.07138
858 2 42.2087 24.0958 8.69308 2.16527
424 1 44.9301 25.7201 5.48746 3.27588
439 2 47.6955 28.0783 11.7205 3.04599
511 2 25.1281 28.4661 12.156 6.3556
583 2 29.5187 26.5024 10.2445 2.20728
655 2 34.311 27.932 11.1165 3.10723
727 2 39.5893 27.398 10.6634 5.46485
799 2 29.0752 3.61415 11.1516 2.66463
5 1 7.79227 4.07961 9.96886 4.37854
6 1 11.4017 5.17719 9.65733 3.21476
7 1 11.8214 6.15603 12.7775 2.47331
440 2 8.84127 4.73671 12.3488 3.24463
451 2 8.68869 6.44467 10.5351 3.73323
77 1 13.4329 4.7113 8.29685 3.18784
78 1 15.9648 6.13781 8.70726 3.3396
79 1 15.9601 5.54209 13.0905 2.84624
512 2 14.4639 4.36809 10.9181 3.1973
523 2 12.6986 7.837 11.3808 3.00286
149 1 18.5541 4.98473 8.33839 2.94813
150 1 20.1646 5.82415 10.1641 3.80713
151 1 20.2955 5.90081 12.5681 3.50668
584 2 17.698 4.62086 11.3212 3.08337
595 2 17.9621 7.30948 10.377 2.94176
221 1 23.0559 4.15871 9.8116 2.95
222 1 26.0592 5.88602 10.1163 2.68881
223 1 25.6058 6.44386 13.6153 3.08298
656 2 24.0453 5.95409 11.3256 3.27589
667 2 21.5869 7.23165 11.2067 5.67478
293 1 28.7661 5.65186 9.34341 1.48664
728 2 26.8063 4.38292 11.6387 2.99066
739 2 27.7594 7.92438 11.0994 1.72695
294 1 31.1963 6.72006 10.048 4.13826
295 1 29.4889 6.21304 12.9492 3.88709
365 1 33.0981 4.31873 9.3681 1.05005
800 2 31.8381 4.66998 12.2712 3.36679
811 2 33.006 8.15655 11.4796 5.57393
366 1 34.8548 6.19671 9.82558 1.26698
367 1 34.5248 6.45526 13.2289 1.41256
17 1 11.2261 9.28203 8.79431 3.10549
452 2 10.3354 8.82676 10.7873 6.01944
463 2 38.3095 11.3677 10.4881 2.85376
18 1 13.4945 10.2769 10.1273 3.68666
19 1 12.5028 10.0829 12.8324 3.13632
29 1 13.3814 14.1024 8.09129 3.53252
89 1 16.1371 9.26061 9.20612 3.45007
464 2 13.1841 13.2122 11.048 1.66904
524 2 15.2001 9.51822 11.8626 2.64914
535 2 15.2942 11.988 11.5481 3.63481
90 1 18.5151 9.87734 9.8379 1.12736
91 1 17.4622 9.67271 13.1796 3.83061
101 1 18.4218 12.1201 9.60467 1.46491
161 1 21.2386 8.77937 9.43425 3.17492
536 2 17.601 12.5439 11.549 2.94096
596 2 20.3895 9.45677 12.2432 1.68515
607 2 20.1823 12.4097 11.6151 1.89665
162 1 23.499 9.99186 10.1414 4.05743
163 1 23.0419 10.1811 12.7642 3.86943
173 1 21.9848 11.9646 8.9693 2.85289
233 1 24.9579 8.82381 6.90716 3.53399
608 2 22.8462 12.3697 12.5604 2.59416
668 2 24.1282 8.02569 10.6281 3.10556
679 2 26.323 10.36 10.8942 1.8056
234 1 27.4625 10.8129 8.67891 3.23496
235 1 27.8203 10.3845 13.535 3.23708
245 1 27.3 13.0678 10.0331 2.78642
680 2 27.2792 13.7685 12.5371 3.06101
305 1 30.1475 8.98121 8.8457 3.32153
306 1 32.6318 10.1043 10.6274 3.15121
307 1 32.3073 9.98263 13.4441 3.16935
317 1 31.7898 12.4949 8.65004 3.40215
740 2 30.388 7.69876 11.8395 4.76554
751 2 29.5647 11.0013 11.1224 3.16439
752 2 31.9883 12.7121 11.8137 2.98728
377 1 34.6911 8.58636 9.34312 1.10064
378 1 36.9859 9.58321 9.44322 3.98283
379 1 37.5436 9.95607 12.5222 2.89714
389 1 36.5362 13.2202 8.92864 2.59281
812 2 34.9828 10.2201 11.2561 2.94249
823 2 33.9277 12.8138 10.2194 2.46983
824 2 36.662 12.588 11.8615 3.12136
30 1 16.2208 14.2281 9.82411 3.27778
31 1 16.4273 14.6663 13.2223 2.75669
41 1 15.8504 17.3542 9.26488 3.64595
476 2 15.2523 16.0768 11.6021 2.00336
102 1 20.4596 14.0285 9.36434 3.56144
103 1 20.868 14.3813 13.9385 2.95314
113 1 20.2077 17.2381 10.5274 3.66239
547 2 17.6346 16.9101 10.536 3.25354
548 2 20.4607 16.59 13.1507 3.76699
174 1 24.4243 14.0974 10.0955 3.95841
175 1 24.8923 14.1271 13.2708 3.15384
185 1 24.1027 16.9215 9.2637 4.69832
619 2 22.622 14.8974 12.4167 2.84755
620 2 26.4849 16.3027 11.4406 2.46188
691 2 28.144 15.2759 10.8924 2.4406
246 1 30.3212 13.6984 10.4276 1.24385
247 1 29.7801 13.7922 13.2139 1.35264
257 1 29.9729 16.8262 9.36056 2.70127
692 2 29.8467 17.3575 12.9028 2.19373
763 2 32.1052 16.1444 10.2597 3.13186
318 1 34.9575 15.1904 10.4065 2.91366
319 1 35.1087 14.2119 12.6276 2.96471
329 1 35.6135 17.5042 9.72588 1.13698
764 2 35.0068 17.0404 12.3509 6.0928
835 2 38.2312 16.2597 11.4759 5.7006
390 1 39.3752 14.2371 9.8836 3.74828
391 1 39.3291 14.2404 12.8489 2.86406
401 1 39.0406 17.6631 9.77719 3.48746
475 2 41.0368 15.7736 11.2552 2.72282
836 2 40.0228 16.9854 12.9482 2.96769
42 1 17.7855 19.2716 9.91992 3.17031
43 1 18.3861 18.8202 13.3872 1.21114
53 1 18.6924 21.2042 8.64727 1.24623
54 1 19.7122 23.1798 10.0529 3.08374
55 1 21.2417 23.8086 12.6511 3.24793
488 2 17.3578 21.2353 11.6064 2.32456
559 2 20.1174 20.1881 11.5346 1.58781
114 1 22.7506 18.5284 10.4359 3.70987
115 1 23.3483 18.3526 13.2251 3.03588
125 1 23.979 20.6982 8.91767 3.9856
126 1 25.72 23.0391 10.2803 3.12623
127 1 26.419 22.5965 12.661 2.93739
560 2 22.3089 21.7096 10.5306 1.90087
631 2 25.0463 19.1902 11.4217 2.89767
186 1 27.9214 18.405 10.0264 4.24641
187 1 27.5007 19.0395 13.1839 3.4373
197 1 29.16 20.6255 8.47116 3.48121
632 2 27.2351 20.5924 10.8334 2.9497
198 1 29.6282 23.0704 9.73115 1.27537
199 1 29.7139 22.6559 12.386 1.13464
258 1 33.1036 18.8162 9.4531 3.5417
259 1 32.7899 17.9552 12.5234 3.15378
269 1 32.0676 21.128 8.24818 1.15535
703 2 30.4912 19.1694 10.6781 3.20455
704 2 31.3134 21.4694 11.1458 2.61895
270 1 34.2789 22.5887 9.45072 3.15411
271 1 34.829 21.9454 12.3779 3.75318
330 1 37.1386 19.4217 10.0552 1.27145
331 1 37.5889 18.3984 12.6365 2.92857
341 1 36.6442 22.1032 8.87544 2.51043
775 2 33.2249 20.2049 10.8361 7.15334
776 2 37.7425 21.3879 12.1094 5.11808
342 1 38.848 22.5963 10.0179 2.8786
343 1 39.2662 23.3141 13.0547 1.21683
402 1 41.6804 18.5353 10.4539 3.16274
403 1 41.681 18.8584 13.3449 2.85666
413 1 41.7105 21.089 9.5282 3.16391
847 2 39.8771 19.863 10.8231 6.12282
848 2 41.8303 21.6849 12.3608 7.70025
414 1 16.8525 22.5936 9.00628 3.54064
415 1 44.845 22.4084 13.8158 3.3667
487 2 43.3234 20.4568 11.9811 2.44895
65 1 20.7598 25.4774 8.85715 3.34821
500 2 20.4268 25.8058 11.5272 3.59687
66 1 23.3594 26.6854 10.6861 3.83781
67 1 22.2393 26.7731 13.3912 2.76793
137 1 25.5495 25.6198 9.46913 1.10807
571 2 23.7231 24.2184 11.2672 3.38749
572 2 26.5027 25.0204 13.3452 2.10347
138 1 27.1772 27.3433 10.3169 2.71321
139 1 27.2517 28.4548 13.013 4.28992
643 2 27.819 24.5627 10.9519 3.44274
209 1 30.2189 25.2439 8.24256 1.00906
210 1 32.3134 27.3877 9.95467 3.19503
211 1 32.4955 26.401 12.8359 3.38963
644 2 29.4353 25.374 13.0065 1.92278
715 2 31.9022 24.8981 11.0092 2.92089
281 1 34.4864 25.7155 9.15212 2.86527
282 1 37.2692 26.4008 10.3964 1.13497
283 1 36.7929 28.0023 12.4649 2.7331
716 2 34.9066 25.6377 12.9927 3.06175
787 2 36.4179 24.1995 10.633 6.2784
353 1 39.3525 25.8622 8.58869 3.09592
354 1 42.1149 26.6288 9.51121 3.79582
355 1 42.0133 27.1597 12.8019 3.03975
788 2 41.3334 24.3988 10.9442 1.84235
859 2 43.5299 22.4954 10.7304 2.59954
425 1 45.0042 25.1585 8.34794 3.46353
426 1 46.5441 26.3426 10.5433 3.09309
427 1 45.829 26.4828 13.2359 3.27473
499 2 47.1145 24.1769 11.8056 3.53567
860 2 44.4592 24.9534 11.1347 1.72472
441 2 36.5559 5.10212 14.9702 1.66219
442 2 10.5843 5.97216 15.7798 3.13066
8 1 13.6842 7.19807 13.9099 1.12664
9 1 13.7445 7.14895 16.3303 2.87535
513 2 13.8609 4.99736 15.0152 4.92099
514 2 16.0532 5.89078 15.5698 6.55201
80 1 18.3104 7.57064 14.4901 3.06454
81 1 17.8367 7.45453 17.106 3.04316
585 2 32.1238 28.846 15.2867 2.49885
586 2 20.1248 6.30058 15.2708 3.2335
152 1 22.9579 8.03636 13.4303 3.26312
153 1 23.6209 7.95352 16.0896 2.68807
657 2 22.9442 4.79485 14.6609 3.23011
658 2 25.6183 5.93323 15.8588 3.1266
224 1 27.7125 8.46296 14.9783 3.6026
225 1 27.6551 7.54856 17.6603 2.48973
729 2 42.2636 29.5386 15.0942 3.15209
296 1 32.9775 7.66277 14.1725 1.31497
297 1 32.3866 7.8258 16.9411 1.14412
730 2 29.8171 6.76598 15.2139 2.8931
801 2 32.1511 5.22511 15.6153 2.55705
368 1 37.3085 7.62253 12.5805 3.52597
369 1 37.1302 7.22912 16.845 3.3901
802 2 35.0085 6.0495 16.4103 7.10763
453 2 38.9929 8.05071 14.7217 1.88799
10 1 15.4637 8.32514 17.9442 2.5401
20 1 15.6776 11.5899 13.7569 3.54793
21 1 15.6335 11.087 16.6183 2.44167
454 2 12.7068 9.7695 15.6509 2.59325
525 2 15.8933 8.16136 14.8781 5.02103
22 1 18.7726 13.0633 17.7104 1.22604
82 1 20.8796 8.75223 17.4661 3.38945
92 1 20.9785 11.7988 14.6513 2.51004
93 1 20.1408 10.9793 17.4534 1.41854
526 2 18.2628 11.7325 15.8236 2.99639
537 2 18.6265 13.3834 14.8517 2.83958
597 2 20.6085 9.20269 15.1294 3.12744
94 1 23.0581 13.0882 18.2238 2.95968
154 1 25.3806 9.1511 17.3022 1.13264
164 1 25.5251 11.7829 14.071 3.04398
165 1 25.3529 11.7461 16.982 3.2458
598 2 22.5221 10.4697 16.6087 2.85841
609 2 23.4506 13.3327 14.8328 2.92347
669 2 26.1604 8.64416 13.0332 3.8371
166 1 27.6522 12.5937 18.1611 2.77574
670 2 27.1887 10.8411 16.141 5.22328
681 2 28.2889 13.4225 15.7095 2.51517
226 1 30.2223 7.80063 17.969 4.01859
236 1 30.1195 11.6211 14.3974 1.1607
237 1 30.7208 11.5889 16.9177 3.83901
238 1 33.2111 13.484 17.9342 3.38932
741 2 30.6422 9.60127 15.3382 6.52034
742 2 32.4897 11.3655 15.2771 6.063
753 2 33.475 13.0322 15.4148 2.75083
298 1 34.9716 8.4217 17.5997 1.59544
308 1 34.3124 11.833 13.2078 2.81625
309 1 35.1673 11.1441 16.714 3.55085
310 1 37.238 13.4812 17.9123 1.59828
813 2 34.3568 8.76886 15.3298 6.98117
814 2 37.2085 9.49078 15.6058 2.62296
825 2 36.2772 12.4163 15.3957 3.92601
370 1 39.9209 9.13622 17.7763 3.63291
380 1 39.0666 11.6329 14.3477 3.34853
381 1 39.6115 11.521 16.7461 3.21741
382 1 42.142 13.0373 17.424 3.72978
465 2 13.4596 12.1433 14.9744 3.33917
466 2 16.2619 13.652 15.4967 5.96798
32 1 18.2602 16.4124 13.9585 1.36708
33 1 18.2923 15.7695 16.6162 1.31284
34 1 20.2904 17.7717 18.4884 2.77861
538 2 21.234 13.8008 16.5578 2.93299
549 2 21.1659 17.0844 15.8928 5.13614
104 1 23.3507 16.1875 15.0148 2.68623
105 1 22.4374 16.1169 17.5145 2.88572
106 1 26.023 17.5329 18.111 3.09909
610 2 25.7935 13.9435 16.2685 2.26093
621 2 25.649 16.8378 13.5513 2.82593
176 1 27.2444 15.6973 14.5953 3.54414
177 1 27.7862 15.6877 17.7122 3.34155
178 1 30.3451 16.3712 17.5543 3.00306
248 1 31.9114 15.0421 13.7272 3.67412
249 1 32.4258 15.8705 16.391 1.23144
682 2 29.9399 15.2005 15.13 4.69504
693 2 30.0065 17.3188 15.405 3.2694
250 1 35.218 17.2189 17.6565 2.94094
320 1 37.106 16.0125 14.2093 1.3673
321 1 37.6683 15.6797 16.5621 3.44155
754 2 35.2003 14.8072 16.5138 2.63304
765 2 34.9607 15.9663 14.9095 2.88784
322 1 40.4092 17.4057 18.2889 3.95526
392 1 42.3377 14.9519 13.6751 3.37554
393 1 43.6553 15.5028 16.6968 2.77804
826 2 40.4872 14.834 16.3655 1.74922
837 2 39.9333 16.7384 15.2023 1.96528
394 1 44.4168 17.7032 17.4391 1.05609
477 2 15.8701 17.4175 13.9971 2.78797
44 1 20.5273 19.1598 14.3749 2.73435
45 1 20.8605 20.0416 17.3833 1.11913
478 2 18.7522 18.8303 16.2526 3.17661
490 2 20.7088 22.637 15.4503 1.97857
46 1 23.5159 21.2751 18.1893 3.42172
116 1 25.304 20.2069 14.2848 3.11383
117 1 26.4919 20.0316 17.4338 3.02537
550 2 23.347 19.6242 16.3077 2.98984
561 2 22.3611 21.4369 13.8018 2.35794
562 2 26.034 22.3337 16.0634 3.8747
118 1 28.6203 21.0954 17.9309 1.11642
622 2 27.3724 17.8842 15.9091 2.92005
633 2 28.6333 20.6453 15.0664 3.76281
188 1 29.7557 19.8407 13.2316 3.39154
189 1 30.6854 19.2643 16.9476 2.73564
190 1 32.0138 21.3727 18.0667 3.34669
634 2 29.9997 22.9926 17.0616 3.10735
694 2 32.5176 19.1442 15.2267 3.3368
705 2 31.8503 21.4302 14.037 2.42853
260 1 34.629 19.0897 13.8035 3.43514
261 1 34.4647 19.7443 16.5713 3.35639
262 1 37.0966 20.944 18.1174 3.59653
706 2 33.8538 22.2462 16.0161 1.81991
766 2 37.4504 19.4176 14.9923 2.31048
777 2 36.6936 21.3556 14.3117 1.96178
332 1 39.9334 20.7806 13.7118 3.66775
333 1 39.9203 19.6975 17.1665 3.79998
334 1 41.8903 21.7569 17.7528 1.37907
778 2 39.2214 22.0637 15.1728 5.76567
838 2 41.9305 18.0621 15.9478 2.94424
849 2 42.3622 22.3421 14.8004 6.73175
404 1 44.2724 19.8341 14.5489 2.86479
405 1 44.4056 20.3596 17.1225 3.0628
406 1 47.283 21.437 17.7634 2.88675
489 2 19.2419 21.2634 14.0243 2.06342
850 2 43.8697 23.966 15.504 2.08463
56 1 22.925 24.4932 14.3144 1.30173
57 1 23.051 24.1037 16.8266 3.21655
58 1 25.3061 26.1051 18.5641 3.028
502 2 22.306 26.4646 16.1786 3.26166
573 2 25.558 25.5447 16.2715 6.19128
128 1 28.6415 23.294 14.7693 3.56984
129 1 27.1567 24.2675 17.4865 3.74322
574 2 28.0141 26.2342 15.6998 3.11588
130 1 30.1648 25.5279 16.9774 4.57833
200 1 32.5897 23.6771 13.4907 3.03522
201 1 32.7947 24.7589 16.9051 3.42873
645 2 31.2104 25.9766 14.9542 5.07661
646 2 32.3454 27.071 16.8484 2.48121
202 1 35.3219 25.6538 17.3037 3.63466
272 1 36.9955 24.2004 13.2178 3.603
273 1 37.0646 23.7839 16.2141 4.17018
717 2 34.4621 24.4798 14.8482 2.97696
718 2 36.8939 27.0623 16.4282 5.80935
274 1 39.3354 25.6665 17.4829 3.63023
344 1 41.2425 24.2727 13.6978 3.44007
345 1 40.8312 23.5025 16.3418 3.73117
789 2 38.8799 25.9976 12.3398 3.49264
790 2 41.9263 25.3269 16.4598 2.09915
346 1 44.8752 25.191 17.8671 2.98534
416 1 46.5846 23.9192 14.1495 1.22681
417 1 47.2216 24.2975 16.6702 3.38507
861 2 43.7459 26.2148 15.1543 3.49583
862 2 46.5351 27.2216 15.9389 2.75122
418 1 49.0966 24.6053 18.1467 3.37244
501 2 48.7325 25.4214 15.1903 5.11857
68 1 25.0878 26.7266 13.9332 2.97836
69 1 25.2437 28.0992 16.745 2.89394
70 1 27.473 29.1804 17.6582 2.98707
140 1 30.3245 27.5984 13.708 3.07656
141 1 29.9068 28.4645 16.823 1.25748
142 1 31.8707 29.6391 17.8383 3.52114
212 1 35.2511 27.4791 14.7823 3.39945
213 1 35.1624 28.7063 16.6201 3.48768
214 1 37.4819 29.8238 17.5313 3.11893
284 1 39.4011 28.1204 13.4878 3.05357
285 1 39.3101 28.0911 15.9325 3.30084
286 1 42.262 28.8249 18.099 3.21185
356 1 44.0578 28.5642 13.906 1.40047
357 1 43.8904 28.1484 16.3038 2.95361
358 1 47.1602 29.3557 18.3321 2.37873
428 1 48.4963 28.9472 14.0357 3.03956
429 1 49.0466 28.1021 16.9563 3.33375
430 1 51.9111 29.2417 18.0078 2.26188
443 2 11.2419 6.36777 17.8932 2.56578
444 2 13.5418 8.49753 20.2883 2.51433
515 2 29.7189 30.5867 18.3502 5.87853
516 2 17.75 6.79392 19.8324 2.68319
587 2 35.2038 30.6786 18.4825 2.75086
588 2 22.8005 7.75587 18.6809 2.30641
659 2 39.5458 30.9596 18.882 2.58297
660 2 29.1749 7.11495 20.4519 3.63499
721 2 18.5448 0.0335065 -0.351928 2.68903
731 2 44.818 29.999 18.0074 5.98572
732 2 32.833 7.41396 20.4919 2.13403
793 2 51.6127 32.0433 22.4759 3.5763
803 2 35.0305 6.17194 18.4546 2.80362
804 2 37.3733 6.74625 19.4651 3.07606
11 1 15.9299 8.65763 20.686 3.27729
455 2 42.2159 11.0128 19.0633 2.76167
456 2 16.1544 11.0455 19.6869 1.74308
12 1 18.8708 10.751 21.8075 1.34851
23 1 18.6683 12.7018 20.4907 2.76778
83 1 20.1458 8.30671 20.53 3.05024
527 2 17.9706 9.87138 18.8934 2.67962
528 2 20.9063 12.2074 19.9398 3.19811
84 1 22.7668 9.39942 21.9598 2.90969
95 1 23.3632 12.6244 20.8417 2.90808
155 1 25.3241 8.84179 20.6833 2.79886
599 2 22.8652 10.5021 19.4435 2.65826
600 2 25.6949 11.5925 20.2302 2.9832
156 1 28.0905 9.84815 21.7899 3.1054
167 1 27.2303 13.1934 20.815 1.54989
671 2 27.1835 9.67728 18.7594 2.91474
227 1 30.52 9.10953 21.0158 2.86268
228 1 32.9588 10.8029 21.9196 3.99488
239 1 32.442 13.2121 20.6581 3.04818
672 2 29.6414 11.1148 20.0873 3.39795
743 2 32.8066 10.9557 19.4465 3.78226
299 1 35.2826 9.07067 20.3612 3.86289
300 1 37.5927 10.5762 21.9598 2.72688
311 1 37.595 13.5561 20.3559 3.15746
733 2 20.6086 3.85414 -0.120937 2.6368
744 2 35.8111 11.8004 19.19 3.20544
815 2 37.5233 11.1125 18.4239 3.19558
371 1 39.285 8.85715 20.1238 2.93563
372 1 42.0407 10.5162 21.86 3.58823
383 1 42.2338 13.2806 20.105 2.44288
805 2 39.8627 13.1067 22.3753 2.79498
816 2 39.8332 11.4781 20.3915 2.45765
24 1 20.4332 14.009 22.4214 2.8298
35 1 20.127 16.6754 20.9683 3.11189
468 2 17.9451 15.8906 18.9961 3.01143
539 2 20.0697 14.6577 18.818 2.273
96 1 25.7902 14.4246 22.0175 1.1464
107 1 26.017 17.2419 21.3414 3.08858
540 2 22.4589 16.3083 20.323 1.95889
611 2 24.5413 16.1156 19.6213 2.74721
612 2 27.8951 15.9944 20.212 3.88784
168 1 29.819 14.259 21.3789 2.25199
179 1 29.1962 17.5043 21.6208 3.33905
683 2 30.7641 13.6149 17.9309 3.34447
684 2 32.1176 16.1103 19.7532 3.0216
240 1 34.4668 15.4278 22.591 3.85571
251 1 34.4539 17.1935 20.5766 1.30817
745 2 38.3969 15.6858 22.2481 2.70757
755 2 34.9775 14.3165 19.2112 3.55328
756 2 36.9699 15.9614 19.6914 2.86752
312 1 40.8662 15.0631 22.1084 1.65626
323 1 39.3914 17.3716 20.7596 3.14324
817 2 43.0636 16.1956 22.2742 5.06048
827 2 39.3521 15.3744 19.1807 2.27096
828 2 43.0138 15.8203 18.9573 5.57439
384 1 44.4775 14.7408 21.2183 3.1381
395 1 44.6704 17.1793 20.3347 3.15794
467 2 15.9193 13.0955 18.0314 3.28561
480 2 20.79 19.5129 20.5131 2.45139
36 1 22.4189 18.7147 22.2819 3.13172
47 1 23.1628 20.9989 20.7883 1.45852
48 1 25.6346 22.1917 21.7061 1.37659
551 2 22.8065 18.5499 18.3258 2.57878
552 2 25.0156 19.6847 19.8208 4.89089
563 2 24.7294 23.0327 19.9349 6.91881
108 1 26.904 19.7657 21.8207 1.14992
119 1 27.4194 21.3854 20.0151 0.935323
623 2 28.5414 19.2752 19.0786 6.26762
120 1 29.6591 23.4955 21.6383 3.84597
180 1 32.3363 18.596 21.5555 2.90297
191 1 32.623 21.1409 20.3886 3.17555
624 2 30.1658 20.4069 20.6054 2.52762
635 2 30.9846 24.6303 18.804 3.38017
695 2 32.3205 18.0754 18.457 3.13329
192 1 34.6835 22.2367 21.493 1.12286
252 1 36.3277 17.6989 22.1044 3.08331
263 1 37.1154 20.9847 20.7096 2.09137
696 2 35.4239 19.8222 19.4025 3.36423
707 2 34.322 22.3331 19.017 5.37527
767 2 38.1941 18.8738 18.8863 3.40645
264 1 39.2742 23.0882 20.8666 4.12422
324 1 41.896 18.1879 21.768 1.30234
335 1 42.2047 21.3051 20.3531 2.70985
757 2 39.916 20.7844 21.4603 2.82702
768 2 39.208 21.3116 19.2064 6.50903
779 2 38.9199 23.9165 18.7589 6.48901
839 2 41.1422 19.2273 19.1149 5.24749
336 1 44.3926 22.7868 22.0811 2.79363
396 1 46.8352 19.2289 22.1796 3.25247
407 1 46.7704 22.0117 20.8116 2.32445
479 2 46.2808 18.836 18.9653 2.4002
829 2 43.0457 20.2633 22.6082 3.17812
840 2 44.1295 19.8001 19.5228 3.31006
851 2 44.7607 22.1706 18.6485 2.59137
408 1 49.6378 23.3582 21.8972 3.12317
491 2 49.1915 22.4608 19.8179 3.14131
59 1 24.7474 25.6585 21.2817 3.74118
492 2 23.5621 23.4233 21.3936 7.60961
503 2 50.7073 27.3993 18.9225 2.9197
60 1 28.6708 26.7957 22.376 3.39948
564 2 28.0836 24.4253 20.0937 2.45714
575 2 28.3054 26.289 19.1126 2.32945
131 1 30.3236 25.5917 20.9959 1.38502
132 1 32.6696 26.5506 21.9608 1.14394
636 2 32.959 24.5688 19.2428 3.20713
647 2 33.2024 27.464 19.0777 1.90711
203 1 34.6883 24.4389 20.6803 3.64825
204 1 36.5949 25.7755 21.8557 3.4495
708 2 36.9234 23.3932 19.7803 3.32452
719 2 37.4928 26.1996 18.9788 3.14177
275 1 39.8895 25.6561 20.4414 3.14331
276 1 41.712 27.6879 20.9485 1.07892
769 2 28.1828 16.3437 0.316134 2.868
780 2 42.0088 24.0426 20.5851 2.95033
791 2 41.8948 25.9577 18.9305 2.35402
347 1 44.2338 25.3039 20.2771 3.5607
348 1 46.3126 26.0689 21.9936 2.96178
841 2 33.2769 15.7499 -0.424619 2.88869
852 2 46.5457 24.0841 18.9982 5.4791
863 2 46.8539 27.1934 19.7957 2.82286
419 1 49.0331 25.8206 20.5433 3.90596
420 1 50.9636 26.8679 22.1829 1.16509
504 2 24.8129 28.1129 20.1252 5.07975
71 1 27.7004 29.2795 20.5029 2.9192
72 1 29.803 30.8847 21.5767 2.87505
143 1 33.5434 28.8328 21.1388 3.08002
576 2 30.4623 28.0121 20.0079 3.02097
144 1 34.7572 30.9156 22.0854 1.17877
215 1 36.898 30.84 20.826 4.04067
648 2 36.3033 28.5459 19.4807 1.74549
216 1 40.6911 31.2861 21.8784 3.34586
287 1 43.1835 29.2204 20.5379 1.4012
720 2 39.3933 27.815 18.5335 2.719
288 1 30.2171 23.2421 -0.407587 3.45297
359 1 45.7365 29.7622 20.5479 3.09873
781 2 30.4608 20.3039 -0.314652 2.61192
792 2 44.4618 27.7106 19.5829 4.4317
360 1 49.3424 30.4133 21.5161 3.55321
431 1 51.4916 29.7356 21.2558 1.14673
853 2 34.642 19.7067 -0.447945 3.06159
864 2 49.4745 28.02 20.4439 5.17451
432 1 54.1295 30.8403 21.0565 1.29218
ITEM: TIMESTEP
350
ITEM: NUMBER OF ATOMS
864
ITEM: BOX BOUNDS xy xz yz pp pp pp
-9.2678504218616731e-01 5.6804461212029338e+01 1.4501252016193066e+01
-8.8662887245303523e-01 3.2556534335834094e+01 1.4421501793992153e+01
-7.7080593372114581e-01 2.2779407879554167e+01 8.3262579428800567e+00
ITEM: ATOMS id type x y z f_grace_gamma
433 2 41.9484 24.2995 -0.167029 2.21301
434 2 2.14418 0.459064 0.498218 2.65306
435 2 16.7059 24.5858 2.95861 5.277
445 2 2.02575 2.81897 -0.832492 2.13785
1 1 3.80689 2.16699 1.11371 1.11135
2 1 6.37641 3.73143 0.91785 2.85351
505 2 18.7485 23.8587 -0.479212 3.11147
506 2 5.75833 1.15712 0.497592 6.60821
507 2 20.7623 25.3143 3.38602 2.11924
517 2 21.6061 11.744 22.391 6.21286
73 1 8.86484 1.54627 1.01989 1.26725
74 1 11.7888 2.93309 1.78214 2.1025
577 2 23.9237 24.0725 -0.592667 5.41729
578 2 11.4881 0.240747 0.617616 6.13973
579 2 11.1342 0.678175 2.93358 7.18506
589 2 25.0735 11.8007 22.6206 6.62921
145 1 13.6413 1.19627 1.24409 1.25818
146 1 15.1378 3.39261 1.21432 2.88418
649 2 28.1974 23.65 1.34484 5.99974
650 2 16.3818 0.856349 0.0999439 5.72344
651 2 30.6511 25.2502 2.21932 3.17563
661 2 30.8212 11.3246 22.0888 6.14113
217 1 18.6672 1.85963 1.30004 2.87852
218 1 20.697 3.0391 2.38434 2.96273
722 2 21.0488 0.588503 0.122324 3.21657
723 2 35.4869 24.9875 3.35521 2.90588
289 1 23.0651 1.91097 1.3438 2.87709
290 1 26.0934 3.54455 2.46679 3.17563
794 2 25.7254 2.04225 0.528233 2.18873
795 2 24.5433 0.530278 3.40537 2.39889
361 1 28.4561 1.88446 1.77289 3.63448
362 1 30.567 2.91312 2.21354 1.42337
13 1 5.93872 7.254 1.62572 3.33339
446 2 4.37971 5.67895 -0.0104397 3.03799
447 2 4.41975 4.90635 2.85652 3.21635
457 2 46.5196 15.8891 22.0157 2.27585
14 1 8.59099 7.57365 2.8052 3.77865
85 1 11.0251 5.74526 1.55872 3.59846
518 2 8.83384 5.87946 -0.260057 2.7709
519 2 8.91828 4.47726 2.26486 3.49994
529 2 8.24006 8.14448 0.203313 2.17946
86 1 13.236 8.38626 2.25655 1.34716
157 1 15.4233 5.57798 0.203587 3.18916
590 2 12.5627 3.20151 -0.670335 6.76096
591 2 14.4649 6.32182 2.63528 2.83632
601 2 13.099 7.29847 0.0488294 3.85266
158 1 19.0367 7.50446 1.71261 3.06335
229 1 20.9026 5.75245 1.70283 2.87492
662 2 17.6278 3.90074 0.0278349 6.89144
663 2 18.5811 5.19445 1.92698 3.35463
673 2 17.7869 6.00513 -0.708119 5.31405
230 1 22.7629 7.58884 2.12423 1.17608
301 1 25.8572 5.72398 1.06132 3.13181
734 2 23.1046 4.49192 0.0618804 2.03379
735 2 23.4038 5.37066 2.87506 6.50217
302 1 27.0014 7.82884 1.56778 1.56983
806 2 28.4875 4.4028 -0.170905 2.1758
807 2 29.2095 5.94357 2.06607 2.49711
373 1 30.5179 5.97884 0.203997 3.7371
374 1 32.3256 7.13371 2.67517 3.41613
458 2 5.36973 8.28587 -0.192766 6.06383
25 1 8.28753 11.2741 1.95517 3.25517
26 1 11.3168 10.4143 2.39289 4.18527
470 2 8.06508 13.5854 0.0523446 2.7644
471 2 8.52303 12.3846 3.5692 7.31788
530 2 10.4395 8.45319 0.0613141 2.13269
531 2 11.0829 8.08451 3.20874 5.47206
541 2 10.1159 12.0694 -0.252929 3.01422
97 1 13.7136 10.211 0.620462 1.21326
98 1 14.9431 12.8968 2.80179 3.39636
542 2 12.6497 12.8302 0.769615 6.93525
543 2 12.5446 12.167 3.70712 6.52386
602 2 16.7962 8.87203 0.781604 2.73447
603 2 15.5286 9.25539 2.74495 2.86425
613 2 15.2896 11.7732 -0.381344 6.30762
169 1 17.7178 10.8926 0.837185 3.64799
170 1 20.4919 11.4581 1.95346 1.25476
614 2 18.289 13.3188 -0.124791 2.62228
615 2 19.7291 14.2376 2.8593 2.24569
674 2 20.0687 9.56786 0.141613 5.52434
675 2 19.0952 9.60705 3.05573 6.56034
685 2 20.3346 11.887 -0.748385 5.34393
241 1 22.8738 10.2503 1.85376 1.0502
242 1 25.2583 11.1556 2.2753 3.15047
686 2 38.2648 19.5483 22.8225 2.12115
687 2 23.5658 12.9859 1.6112 2.99371
746 2 25.4835 10.0702 -0.374916 5.95443
747 2 24.6842 8.52252 0.52892 6.84367
313 1 27.694 10.3098 0.44002 2.8863
758 2 27.8583 12.8045 1.36476 2.40208
759 2 29.1925 13.3216 3.84534 2.6294
314 1 30.4573 11.6089 2.10105 1.16005
385 1 32.2403 10.1954 1.59372 2.9784
818 2 30.6293 9.65881 -0.125285 2.00181
819 2 29.6578 8.22213 2.2213 1.76974
830 2 32.3326 13.1459 0.561152 3.16168
831 2 32.5885 13.8719 4.19276 2.13333
386 1 33.9813 12.531 2.50295 3.49516
459 2 34.9482 9.56161 2.52608 3.26385
469 2 34.8754 13.4509 -0.0916868 2.14012
37 1 10.5938 13.6617 1.84186 1.19178
482 2 39.73 17.9524 1.92154 2.88494
38 1 13.2056 15.4135 1.61907 1.37738
109 1 16.0459 14.6219 1.01041 2.97622
553 2 13.5003 15.4132 -0.631432 3.97538
554 2 15.8797 17.1437 0.597354 6.36194
555 2 16.4222 16.528 2.33472 3.12309
110 1 19.1714 16.2922 2.02469 3.93994
181 1 21.1166 13.3854 0.672619 3.92206
625 2 17.871 16.2258 -0.779178 2.55029
626 2 20.8786 16.9121 0.0207937 3.22383
627 2 20.4856 17.0891 3.96287 3.49902
182 1 23.2686 15.9763 2.61531 1.51627
253 1 25.3606 14.7332 2.1701 4.798
697 2 23.3397 13.9066 -0.528533 2.15124
698 2 24.9839 17.4668 -0.469822 3.0629
699 2 24.6093 18.1314 3.28999 5.94278
254 1 27.9355 15.0804 2.31193 3.44198
325 1 30.2534 14.1764 1.43079 1.11596
326 1 31.5283 16.7074 1.85364 2.87062
770 2 29.9184 17.9311 -0.68057 3.42343
771 2 29.0627 17.5185 2.5429 6.67071
397 1 33.8193 15.5643 2.77567 4.07122
398 1 37.5583 15.2938 2.32948 1.07832
481 2 10.601 15.6816 0.240189 3.29053
842 2 36.6312 16.2759 0.293842 2.69959
843 2 35.6131 16.964 3.05296 2.86779
483 2 12.0252 17.0168 3.5048 3.36832
493 2 25.5247 28.3973 22.3985 6.44791
49 1 13.6129 17.7798 1.63451 1.63411
50 1 15.4839 19.8298 2.36187 1.406
61 1 16.3895 22.6326 0.964234 3.34959
494 2 13.4966 21.6304 -0.320543 3.49969
495 2 42.2275 22.2784 3.12284 2.52941
565 2 17.1717 20.1195 -0.456403 2.8051
121 1 18.2817 18.4828 1.52516 1.2788
122 1 20.6335 19.4475 1.56644 1.35537
133 1 20.5815 22.6575 1.81198 1.28923
566 2 18.9542 21.5367 0.375707 5.44276
567 2 17.227 21.5384 3.15312 5.89202
637 2 21.6391 19.8516 -0.329091 2.91175
193 1 23.5484 18.4607 1.42494 4.2701
194 1 25.6552 20.4948 0.995191 1.07344
205 1 25.6463 23.0333 1.28667 1.17137
638 2 23.064 20.7651 1.39132 6.32205
639 2 24.2528 22.1791 2.65384 6.42822
709 2 38.9473 29.0761 21.9331 2.3698
265 1 27.8742 18.7052 0.666623 3.37023
710 2 28.1218 20.992 -0.242425 7.11147
711 2 28.2678 20.2458 2.35294 5.07431
266 1 30.9783 19.3881 2.47285 1.14266
277 1 29.8031 21.9059 2.31031 3.37206
337 1 32.679 19.3788 1.03529 1.90824
782 2 47.6567 31.2478 22.5882 3.32207
783 2 33.606 20.4854 2.79778 5.15095
338 1 35.6959 20.6121 1.79523 2.99788
349 1 35.4485 22.951 0.347156 1.13524
409 1 37.1393 18.2671 1.16892 3.78194
854 2 38.2014 20.1566 -0.0665658 7.0218
855 2 38.5444 22.6364 2.88185 3.06263
410 1 40.0779 20.3025 2.15684 4.17225
421 1 39.8397 22.7323 0.170345 3.28079
62 1 18.7106 24.7031 1.79796 2.82348
134 1 23.4855 24.2802 1.75628 1.18054
206 1 28.5436 24.6389 3.12681 3.79611
278 1 32.9711 24.1753 1.50533 2.8655
350 1 37.5488 24.2854 1.57734 2.21805
422 1 42.8734 24.5331 2.25294 3.15343
3 1 6.82202 2.85112 3.72925 4.3659
436 2 19.8529 26.0646 5.90822 1.9956
437 2 47.2512 26.7319 7.53018 3.34484
438 2 7.38155 3.03724 7.58142 1.76292
75 1 11.519 3.14716 4.79792 3.21684
508 2 9.49056 1.56261 4.07517 3.65787
509 2 23.42 25.6453 8.49574 3.24482
510 2 10.3365 3.11344 8.66921 2.1143
147 1 14.9885 3.82014 4.44178 3.54215
580 2 14.1752 1.71763 4.04901 4.08764
581 2 28.1311 26.3568 6.96344 3.35124
582 2 16.1238 3.19683 7.93598 3.20287
219 1 21.4681 4.8635 4.91144 2.68589
652 2 18.5001 1.70777 4.3738 2.90637
653 2 18.7955 2.80238 7.18009 1.79309
654 2 22.162 3.12428 7.84054 1.51466
291 1 25.4777 3.25991 4.82662 2.68577
724 2 22.6687 2.45813 4.32044 2.55585
725 2 38.4923 26.4803 6.66779 2.91609
726 2 25.2058 4.04431 7.94286 2.52371
796 2 28.4182 3.09579 4.88787 2.12299
797 2 27.1017 2.01994 6.87313 2.72669
363 1 31.8093 3.11833 5.05346 3.62588
798 2 30.8218 3.2773 7.51507 3.66461
448 2 7.15711 6.15781 3.77156 3.32996
449 2 7.07744 5.58752 6.36849 1.84036
4 1 9.15945 4.64403 4.86925 2.65333
15 1 9.35281 7.03703 5.28674 1.45771
450 2 8.46447 7.24533 7.54996 2.67941
520 2 11.5313 5.70539 4.4134 6.68029
521 2 10.6417 5.37962 6.78101 2.94442
76 1 13.5411 5.29656 6.05259 1.44656
87 1 14.0472 7.7627 5.05745 3.1335
522 2 12.39 6.7077 7.6842 2.86929
592 2 16.8456 6.86985 2.07274 2.23227
593 2 16.1412 4.34709 6.42863 3.74454
148 1 18.4208 5.25441 4.92397 3.49846
159 1 17.6861 7.76102 4.95631 2.99084
594 2 17.9169 7.51637 7.49199 3.65682
664 2 21.066 8.20998 3.62654 6.65787
665 2 20.6416 7.19369 6.46183 2.19004
220 1 23.8798 5.02403 5.51719 3.19637
231 1 23.078 7.55433 4.94706 1.2124
666 2 23.1928 6.70006 8.40207 2.21795
736 2 25.7941 5.83108 3.83822 2.90451
737 2 26.3073 6.18477 6.79929 3.04405
292 1 28.1786 4.55858 7.14409 3.47643
303 1 27.7653 7.56236 5.33191 2.73196
738 2 26.7648 7.65506 8.47514 2.97336
364 1 33.3392 3.9395 6.90393 3.37601
375 1 32.6625 6.95988 5.20204 4.27908
808 2 29.8886 5.37279 5.32517 1.93307
809 2 30.4331 6.33146 7.95513 7.49685
810 2 33.4002 6.65254 7.36142 3.26869
16 1 10.8706 8.65489 5.76167 3.11286
27 1 10.4166 11.7689 4.86159 3.00637
460 2 8.69446 9.65805 4.82275 6.1801
462 2 10.6355 13.5816 7.48217 3.17372
28 1 13.7078 12.4118 5.76219 4.21846
88 1 16.2921 9.29097 6.45671 1.40382
99 1 15.6112 11.427 4.67103 1.60134
532 2 13.0625 10.092 5.4376 2.57799
533 2 13.4885 8.76083 7.50165 2.1465
534 2 15.9979 12.4001 6.89514 3.36795
100 1 18.3769 13.6897 7.83873 3.43153
160 1 19.9176 9.48959 5.23164 2.75488
171 1 20.3183 11.9652 4.38222 3.25126
604 2 17.286 12.1142 2.95151 2.88979
605 2 17.4825 11.4108 7.01116 3.59008
606 2 19.8942 11.9227 7.4999 3.47515
172 1 22.9386 13.397 6.22073 4.82127
232 1 25.8297 9.06626 3.78733 3.33202
243 1 25.3497 11.8866 6.29389 4.72829
676 2 22.2834 10.1801 4.27926 6.68067
677 2 22.4754 10.3451 6.9887 2.02897
678 2 24.8825 11.4104 8.70283 3.23354
244 1 28.0781 12.0917 5.64373 3.89086
748 2 28.1791 10.5899 3.32575 2.78355
749 2 27.2205 9.88677 6.24711 6.23524
304 1 30.0377 9.31531 5.64622 2.50199
315 1 31.2069 11.7195 5.63704 3.1253
316 1 34.9609 13.2867 6.39714 3.04599
750 2 30.2104 11.5106 7.71707 5.00823
820 2 31.948 9.67253 4.07982 7.10422
821 2 32.0804 9.69542 6.96553 7.62137
376 1 35.9288 8.63561 6.17834 3.07552
387 1 34.0885 10.1388 5.25623 2.97548
388 1 37.5131 13.4589 6.09934 3.02481
461 2 10.7855 10.9929 7.41976 1.51393
822 2 36.8879 11.0352 7.75194 3.20102
472 2 11.3335 14.5585 3.79696 2.89008
39 1 13.8128 16.2604 6.2916 3.35567
40 1 16.4485 17.9187 5.61551 4.03688
474 2 41.3599 16.479 8.92397 6.03808
544 2 17.1851 14.7787 4.26383 2.85291
545 2 16.6274 15.2228 6.92052 2.30641
111 1 19.0646 16.7894 6.05169 4.36784
112 1 21.1201 17.5619 6.48182 4.07108
546 2 19.0618 16.2324 8.66402 3.08277
616 2 22.0828 13.905 3.29463 3.00423
617 2 20.8985 14.6467 6.56525 3.5001
183 1 23.0294 16.3885 5.03489 1.43459
184 1 25.9743 17.6446 6.04404 3.77664
618 2 22.48 15.0179 9.51655 2.32744
688 2 26.787 12.8214 3.26646 3.26697
689 2 24.7829 14.879 6.488 2.3545
255 1 28.1085 16.3343 5.04809 3.43705
690 2 27.2549 15.2666 7.80963 1.92544
256 1 30.7353 16.1835 7.08499 3.49848
327 1 34.1345 15.7524 5.74041 3.0502
760 2 30.9824 13.968 6.15671 2.17227
761 2 28.8806 13.3346 7.51408 4.5243
762 2 32.8306 15.0944 8.42977 3.50818
328 1 35.5998 18.0607 5.70446 2.79134
399 1 38.0704 17.2361 4.34425 2.14036
832 2 35.7524 14.8089 4.06877 3.42742
833 2 36.2135 16.0599 7.40734 2.88124
834 2 38.7016 15.7809 7.67393 2.94631
400 1 40.4479 17.6739 6.39229 2.81841
473 2 11.4527 14.9489 5.94811 3.06447
51 1 15.3877 20.2504 5.01305 3.36888
484 2 14.0868 18.6312 3.87867 6.20001
486 2 15.5545 20.2323 9.02144 2.59174
496 2 15.3494 22.7284 4.02235 2.50571
52 1 18.7064 20.7504 5.75496 1.36343
123 1 19.8788 21.1599 3.40154 3.36539
556 2 18.3221 18.4717 4.20201 4.78321
557 2 19.2153 18.6749 7.88393 6.24087
558 2 21.4844 19.7831 8.28799 2.41918
568 2 21.3785 23.4785 4.20065 2.06658
569 2 20.9778 22.3794 7.2612 2.80757
124 1 23.5134 20.7819 5.99747 4.73369
195 1 25.3542 20.6436 3.73921 2.69495
628 2 22.1543 18.1942 3.33944 6.7374
629 2 23.4483 18.6518 5.77407 3.62958
630 2 26.8511 19.808 8.60445 2.5973
640 2 26.5662 23.3519 4.92034 7.14422
641 2 27.1708 23.0695 8.15717 6.4286
196 1 27.4363 21.039 5.07433 3.92671
700 2 27.0704 18.2887 3.3624 3.02802
701 2 27.952 17.4796 7.16507 8.07965
267 1 29.5465 19.2523 4.58785 3.08877
268 1 33.071 21.4642 5.89542 3.36117
702 2 29.9658 18.7752 7.36011 3.38647
712 2 31.8569 21.4871 4.08427 3.17167
713 2 30.0364 21.2944 5.92018 3.24462
772 2 32.8654 18.3645 4.47302 2.46812
773 2 34.5 17.1009 7.68681 6.00228
339 1 35.1777 20.7212 4.70035 1.13985
340 1 37.8909 21.6512 5.48803 2.3512
774 2 35.4767 19.7912 7.87296 3.22438
784 2 35.7815 22.363 3.39175 5.40242
785 2 35.5963 22.6032 6.30084 2.67644
844 2 37.127 19.4629 3.71483 5.34282
845 2 38.4115 18.3452 6.89732 2.7802
411 1 40.0267 20.2621 5.10456 3.1329
412 1 42.9726 22.236 6.71111 3.68657
485 2 42.5726 19.3556 6.89929 2.73268
846 2 40.3523 20.3146 7.35481 2.39011
856 2 40.2838 22.9476 2.34978 3.19401
857 2 40.4434 22.89 7.72221 2.06685
497 2 16.0897 21.2371 7.27586 7.22008
63 1 18.3466 23.7074 4.44363 2.72772
64 1 22.5951 25.3941 6.19614 3.54539
498 2 18.8108 23.6844 6.95692 3.08075
135 1 24.1802 23.9474 4.99361 3.27807
136 1 25.7696 25.0762 6.55425 1.58391
570 2 24.9829 23.3203 7.6495 6.0337
207 1 29.0383 24.1168 6.1919 3.11265
642 2 28.2385 24.7621 8.73252 6.52223
208 1 31.3774 25.7494 5.5727 3.97397
279 1 33.4597 23.5556 4.14396 2.98596
714 2 33.3251 23.5297 7.56693 3.26385
280 1 35.3461 26.0357 6.60604 3.33225
351 1 37.591 24.3484 5.06292 2.42423
786 2 37.3505 25.0255 8.16324 3.38332
352 1 40.2346 25.2623 5.37473 3.75172
423 1 42.8395 24.7002 5.93904 2.95676
858 2 42.9708 24.0338 8.79708 2.3015
424 1 45.0729 25.6751 5.21704 2.78647
439 2 47.8001 28.1301 12.0002 2.67147
511 2 10.307 3.75816 12.0747 6.59187
583 2 30.3016 25.8704 10.3704 2.75691
655 2 34.9718 27.5133 11.0763 2.6821
727 2 40.145 27.7285 10.2481 3.03266
799 2 29.6887 3.55262 10.7476 2.30209
5 1 7.29638 3.56846 10.2035 1.23142
6 1 11.6237 5.07846 10.2756 3.35047
7 1 11.9385 5.79652 13.0218 3.03746
440 2 8.57344 5.08869 12.4644 2.89744
451 2 9.30944 6.28995 9.95169 2.16321
77 1 12.9537 4.20217 8.48557 2.97135
78 1 16.0036 5.80502 8.56643 3.4772
79 1 15.6732 5.30994 13.158 2.7736
512 2 15.1662 4.30876 10.6876 2.03225
523 2 13.1381 7.76042 10.6882 3.0385
149 1 18.4523 5.09759 8.61693 1.88637
150 1 20.2212 5.39945 10.03 3.43101
151 1 20.2578 6.05096 13.0659 4.40935
584 2 17.8208 4.72402 11.6392 2.1163
595 2 18.1037 7.77217 10.8379 14.474
221 1 23.229 4.2301 10.1833 2.27984
222 1 26.1806 5.95999 9.58908 3.05313
223 1 25.8546 6.47293 13.584 2.77723
656 2 23.6039 5.87019 12.3641 6.36103
667 2 22.0093 6.70012 11.1474 2.96367
293 1 28.975 6.11542 9.58663 4.5291
728 2 27.2883 4.90923 11.9969 2.71556
739 2 28.5499 7.61772 10.9453 3.06754
294 1 31.6655 6.48319 9.84047 1.32546
295 1 29.4415 6.00765 12.9273 2.97169
365 1 33.101 4.41166 9.78954 3.06459
800 2 31.5293 5.78485 12.4192 3.53639
811 2 33.394 7.55517 11.3875 6.37326
366 1 35.5495 6.03275 9.79405 1.071
367 1 35.3241 6.34145 13.102 3.5262
17 1 11.561 8.98684 8.94951 3.79232
452 2 10.7064 8.26604 11.332 2.99642
463 2 38.8932 11.1729 10.2456 2.01981
18 1 13.5479 10.361 10.3474 4.30809
19 1 12.5952 10.023 12.8504 3.08478
29 1 13.8218 14.4239 8.42308 3.67271
89 1 16.5597 9.16937 8.9822 3.41881
464 2 12.2664 12.8835 10.5488 1.7199
524 2 15.786 9.80497 11.6739 3.22948
535 2 14.2395 12.0592 11.6015 3.10945
90 1 18.7401 9.72593 9.96218 1.39267
91 1 17.6884 9.59203 13.465 3.18429
101 1 18.2426 12.1132 9.78083 3.26706
161 1 21.153 9.09876 9.72816 3.85852
536 2 17.9374 11.613 12.6417 3.16451
596 2 20.6767 10.0116 12.8788 2.89971
607 2 20.9455 12.5231 11.6563 2.18142
162 1 23.8295 10.1225 10.2952 4.31783
163 1 23.3742 10.4979 13.1843 2.96695
173 1 22.0741 11.6293 9.00122 3.04536
233 1 24.7146 8.67632 6.21539 2.32731
608 2 22.7445 12.88 13.0666 7.48688
668 2 24.1743 7.37568 10.3615 1.97452
679 2 26.9398 10.0556 10.6693 1.87844
234 1 27.8492 11.3766 7.94254 4.17163
235 1 28.0783 10.2676 13.2115 3.34618
245 1 27.1865 12.9935 10.1566 3.06441
680 2 27.0115 13.4079 12.72 6.03355
305 1 30.3447 8.8525 8.88408 2.23823
306 1 32.7902 10.0791 10.3005 3.06009
307 1 32.5783 9.93835 13.2574 3.60444
317 1 32.2097 12.4942 8.37356 3.3621
740 2 30.7097 8.78024 11.8107 3.03011
751 2 28.9786 10.6541 10.7574 2.21841
752 2 32.7546 12.812 11.7039 3.20454
377 1 34.6811 8.60057 9.52089 1.51102
378 1 36.9611 9.59109 9.54494 3.60984
379 1 37.8218 10.1564 12.8241 2.92126
389 1 36.6058 13.2266 9.13003 2.89086
812 2 35.4169 10.6056 11.3565 2.64828
823 2 34.1709 11.7884 9.5663 3.45906
824 2 36.843 12.7808 11.9364 3.00198
30 1 16.2547 14.4045 9.79299 3.10717
31 1 16.2617 14.7479 13.3587 3.26588
41 1 15.9143 17.7527 9.26596 2.95215
476 2 14.898 16.036 10.8427 3.20362
102 1 20.2588 13.8352 9.2573 3.41901
103 1 20.9911 14.1184 13.8733 3.73444
113 1 20.2774 17.3435 10.4885 3.50188
547 2 18.0981 17.2134 10.5692 3.84383
548 2 21.3292 16.8591 12.6409 3.53902
174 1 24.656 13.9296 9.95626 4.59758
175 1 24.6136 14.1323 12.9949 3.69853
185 1 24.6251 16.8652 9.16893 5.71807
619 2 22.568 15.3746 12.3026 7.81673
620 2 26.8037 15.5563 11.8724 2.22034
691 2 28.9594 14.8855 10.7937 7.29211
246 1 30.6635 13.6564 10.6621 3.77325
247 1 29.7177 13.8686 13.1596 2.93444
257 1 29.9654 16.2486 9.2635 1.71888
692 2 30.2709 16.8671 12.3167 3.12497
763 2 32.3987 16.633 10.1727 6.99758
318 1 35.3176 15.387 10.2808 2.79056
319 1 35.142 14.4081 13.0202 3.60653
329 1 36.2387 17.7087 9.90096 3.44953
764 2 35.5698 16.6466 12.2491 5.87852
835 2 38.7911 15.8586 11.5485 2.7255
390 1 39.3522 14.6768 9.6142 3.62224
391 1 39.5722 13.9791 13.3016 3.45318
401 1 39.3151 18.0104 9.84373 2.76879
475 2 41.2696 16.0958 11.7591 2.19485
836 2 40.0153 17.6721 13.6004 2.58516
42 1 18.2138 19.5798 10.1192 3.16449
43 1 18.3888 18.8098 13.2409 1.50397
53 1 19.3181 21.1159 8.28642 1.80981
54 1 19.2756 23.5478 9.68828 1.19184
55 1 21.4941 24.5445 12.4114 4.46325
488 2 17.5021 21.5677 11.6557 1.60429
559 2 19.7063 20.6771 11.5423 2.05293
114 1 22.7782 18.5756 10.4675 3.82745
115 1 23.6029 18.1724 13.4462 2.95808
125 1 24.779 20.9497 8.92449 4.4323
126 1 25.9044 23.229 10.2176 1.56684
127 1 26.4958 22.778 12.5479 3.54048
560 2 22.8639 22.2083 10.2254 2.45711
631 2 25.9433 19.5229 11.8065 4.3576
186 1 28.3031 18.1603 10.0555 3.93925
187 1 27.6802 19.3482 13.0075 4.44919
197 1 29.7449 20.6352 8.58194 3.79585
632 2 27.4435 21.0288 10.531 6.72557
198 1 29.5305 22.9884 9.90115 1.19476
199 1 29.6593 22.8375 12.4532 1.20238
258 1 33.2382 18.3733 9.10362 3.31882
259 1 32.8705 17.7618 12.0843 3.21165
269 1 32.1769 21.1946 8.22861 1.30151
703 2 30.2798 18.367 11.201 7.09203
704 2 30.8112 21.0489 10.4737 6.0529
270 1 33.9954 22.4888 9.70085 2.95351
271 1 35.0468 21.9115 12.4024 4.30889
330 1 37.4924 20.1156 9.60557 3.81754
331 1 37.8711 18.028 12.8236 3.41726
341 1 36.749 21.9852 8.71363 3.05883
775 2 33.2478 20.9882 11.7205 2.77199
776 2 37.7401 21.3511 12.1437 2.98268
342 1 38.7389 22.7748 10.3221 3.10078
343 1 39.4504 23.6125 13.3957 1.39961
402 1 42.1264 18.4228 10.0635 3.11848
403 1 42.2642 19.0401 13.6208 3.02374
413 1 41.6974 21.2401 9.1738 3.15284
847 2 40.2584 20.5342 11.2279 4.15044
848 2 41.7572 21.9877 12.253 1.7695
414 1 17.2012 22.664 8.85523 1.45428
415 1 45.1709 21.9852 14.0647 3.56873
487 2 44.2233 20.0966 12.521 3.76044
65 1 20.8665 25.5175 8.83109 2.89923
500 2 20.2005 26.5937 11.0199 6.10123
66 1 22.9436 26.9548 11.2317 1.38532
67 1 22.3272 26.7857 13.434 1.491
137 1 25.7965 25.6367 9.16279 2.78696
571 2 24.1865 24.764 11.8762 2.7727
572 2 26.8931 24.842 13.6534 2.14913
138 1 27.1457 27.7041 10.5691 1.53679
139 1 27.1197 28.5974 12.8553 1.33676
643 2 27.703 24.9345 10.8421 2.83003
209 1 30.4314 25.2384 8.04291 3.02881
210 1 32.2515 27.6698 9.62348 2.61617
211 1 32.8723 26.6112 12.5802 3.2145
644 2 29.7013 25.0061 12.8074 2.93713
715 2 31.8791 24.2264 10.5932 3.25132
281 1 34.2626 25.7515 9.12554 2.9113
282 1 37.7305 26.8066 10.1918 3.45709
283 1 37.4187 28.4956 12.5381 1.11736
716 2 35.3034 25.7452 12.9511 3.22982
787 2 35.5693 24.3503 10.7061 3.05323
353 1 39.8646 25.567 8.4216 2.64053
354 1 42.363 27.0728 9.66529 3.40997
355 1 42.2205 27.2356 12.8126 3.03567
788 2 41.5385 24.5433 11.5083 2.20087
859 2 44.0329 22.351 10.1744 1.72829
425 1 45.3395 25.1424 8.03952 2.85113
426 1 46.7593 26.3047 10.1907 3.4148
427 1 45.87 26.9861 13.6708 3.53693
499 2 47.4211 24.4009 12.2626 2.29465
860 2 44.5332 25.0688 10.4571 2.48837
441 2 50.9137 29.5351 15.0927 2.43513
442 2 10.3882 5.33388 15.1034 2.16598
8 1 13.8844 7.13197 13.9013 3.35904
9 1 13.8176 7.05733 16.601 2.53763
513 2 28.3195 29.5624 15.2586 3.08272
514 2 16.5008 6.33663 15.669 6.24806
80 1 18.2869 7.58836 14.7467 2.95079
81 1 17.8096 7.32468 17.5605 3.56248
585 2 32.1699 29.1354 15.5317 2.30738
586 2 19.5945 5.91556 16.2868 2.73218
152 1 23.0993 7.92011 13.1643 2.42935
153 1 23.3997 7.97844 15.9424 2.66388
657 2 22.5385 4.99944 14.336 3.49358
658 2 25.3981 5.04798 15.4645 7.79531
224 1 27.3214 8.3614 15.2448 3.8211
225 1 27.8079 7.14728 17.4668 3.41234
729 2 42.2804 29.8469 15.0271 2.92347
296 1 32.9407 7.59984 14.4272 2.75618
297 1 32.8374 8.3237 16.9993 3.27976
730 2 30.0282 6.12506 16.1091 2.78834
801 2 46.5792 29.68 16.0466 1.69697
368 1 37.3977 7.37495 12.4184 3.27103
369 1 37.3755 7.22572 17.2761 2.98957
802 2 34.5903 5.93686 16.634 3.32096
453 2 38.9087 7.76922 15.2461 2.399
10 1 15.2741 8.46479 18.1248 1.07237
20 1 15.8824 11.3571 13.6879 4.42811
21 1 15.5649 10.8515 16.7876 3.06877
454 2 13.1738 9.30455 15.2731 3.02267
525 2 15.2354 8.97802 15.1689 3.07618
22 1 18.6022 13.4616 17.6906 3.05001
82 1 21.2307 8.54477 17.5175 3.02334
92 1 21.1399 11.2485 14.8247 4.33982
93 1 20.2199 10.8731 17.8222 3.76231
526 2 17.6162 11.5984 15.7132 2.9305
537 2 19.1456 13.8984 14.9903 3.1903
597 2 20.9839 8.50533 14.6326 3.08341
94 1 23.2861 13.0982 18.2931 3.50377
154 1 25.662 8.89045 17.4915 1.18663
164 1 25.7929 11.6688 13.7836 2.97755
165 1 25.3836 11.4359 17.8046 1.69923
598 2 23.1286 10.573 16.3666 3.88243
609 2 22.753 14.1097 15.4684 7.36445
669 2 26.1103 8.8194 12.4607 3.27838
166 1 27.8102 12.6366 18.3256 3.6166
670 2 27.8147 10.9034 15.989 2.33868
681 2 28.7058 13.2496 16.0026 3.48932
226 1 30.5047 7.38817 18.029 3.35577
236 1 30.4019 11.1797 14.4405 2.84122
237 1 30.9313 11.4487 17.1679 5.23973
238 1 33.4716 13.6816 17.8316 3.85053
741 2 30.0158 8.84241 15.9121 3.18039
742 2 33.3206 11.6072 15.4878 2.95052
753 2 34.501 14.4199 15.4383 8.40285
298 1 35.0926 8.34411 17.7844 1.34286
308 1 34.5888 11.646 13.4363 3.41792
309 1 35.4094 11.1892 16.9941 2.86874
310 1 37.2119 13.2897 17.8851 1.64443
813 2 34.6719 9.1754 15.5603 6.65247
814 2 36.5811 10.1135 15.0885 2.1079
825 2 36.3322 13.3313 15.1785 3.75875
370 1 40.1882 9.13659 18.0683 3.08053
380 1 39.339 11.5283 14.2384 3.95322
381 1 39.8826 11.6568 16.9445 3.34592
382 1 42.9021 13.0624 17.1559 3.10629
465 2 12.8089 11.9839 14.7493 2.89521
466 2 16.0177 12.9544 15.7993 5.53654
32 1 18.1423 16.2735 13.683 3.3208
33 1 18.24 16.2381 16.3933 3.14902
34 1 20.4366 17.6955 18.5223 1.39427
538 2 20.855 14.1595 16.2779 3.65172
549 2 20.4403 17.0925 15.7239 7.98497
104 1 23.269 16.1685 14.6489 4.80779
105 1 22.7031 15.8563 17.7832 3.24966
106 1 26.2795 17.8788 18.1488 4.37525
610 2 25.9442 13.8254 16.726 2.31568
621 2 24.9906 16.3076 13.3576 8.09414
176 1 27.5732 15.7184 14.8178 3.60794
177 1 27.7533 15.7606 17.4462 1.56072
178 1 30.4864 16.1114 17.6753 3.22813
248 1 32.1723 15.1169 13.8217 3.24616
249 1 32.6598 15.6292 16.3339 1.07403
682 2 29.7438 15.2469 15.5511 5.20039
693 2 29.7965 17.9355 15.2897 2.03431
250 1 35.2835 17.4318 17.8618 3.79239
320 1 37.329 15.8881 14.105 1.39641
321 1 37.6878 15.4559 16.6185 3.6318
754 2 35.4265 15.074 17.6962 5.93113
765 2 34.9801 15.7761 14.9986 8.03544
322 1 40.853 17.387 18.1639 4.27987
392 1 42.5969 14.6467 13.3443 3.30997
393 1 44.5464 15.5179 16.5001 3.01128
826 2 40.7046 14.2348 16.7572 1.8772
837 2 40.7817 16.4104 15.2672 2.28124
394 1 44.8397 17.8488 17.7496 2.37502
477 2 15.5368 17.2398 13.0205 3.33271
44 1 21.0299 19.1421 14.2133 3.32026
45 1 21.1824 20.1169 17.4725 2.69023
478 2 19.0295 19.4148 16.1815 3.60799
490 2 20.9589 23.3702 15.5059 2.69945
46 1 23.6418 21.6824 18.6809 2.62655
116 1 25.7205 20.4947 14.1854 3.7462
117 1 26.1344 20.394 17.3343 3.31274
550 2 23.7378 19.8804 15.8776 2.22958
561 2 22.2321 21.8404 13.4039 2.63443
562 2 26.8641 23.5425 15.535 3.74333
118 1 29.0336 21.793 17.9351 3.16112
622 2 27.5492 18.1316 15.9785 2.30959
633 2 28.8945 21.1754 15.2492 4.49766
188 1 29.9866 19.8761 13.0752 3.42286
189 1 30.9037 19.0823 17.1224 2.99655
190 1 31.8779 21.4156 18.2115 3.31678
634 2 30.1581 23.5327 16.7735 7.12658
694 2 31.8968 19.5378 14.4604 2.9828
705 2 32.0576 21.501 13.9699 2.43967
260 1 35.0499 18.9412 13.8256 3.64475
261 1 35.2615 19.387 16.6868 3.70989
262 1 37.0891 20.7513 18.3103 2.88255
706 2 34.0891 22.5904 16.8453 2.29031
766 2 38.1915 19.6631 15.3972 2.43855
777 2 36.451 21.7488 14.3244 2.64955
332 1 40.1793 20.647 13.663 3.01073
333 1 40.2732 20.156 16.9581 2.93294
334 1 42.2603 21.6899 18.0762 1.18992
778 2 39.082 22.2437 15.6335 6.6063
838 2 42.4762 17.6854 16.1821 2.94302
849 2 43.0318 21.3029 15.275 6.31287
404 1 44.524 19.6126 14.7792 1.44804
405 1 44.3798 20.4146 17.2025 3.31745
406 1 47.4649 21.5916 17.4604 3.09429
489 2 19.2699 21.9806 14.33 1.96964
850 2 44.3044 23.9775 15.9208 2.25402
56 1 23.4125 24.7928 14.6018 1.21946
57 1 22.9945 24.2583 16.9228 2.49743
58 1 25.2789 26.3152 18.6014 3.44326
502 2 22.8409 27.3472 16.3798 5.34593
573 2 25.5745 25.4342 16.0193 2.84641
128 1 29.1256 23.4089 14.6938 3.88644
129 1 27.1548 24.3614 17.9786 4.79392
574 2 28.3273 26.4346 15.6965 3.08197
130 1 30.0129 25.8068 16.9745 4.22516
200 1 32.8968 23.7421 13.4569 3.78174
201 1 32.8244 25.0095 16.8849 3.20302
645 2 31.3887 25.6982 14.9173 3.68724
646 2 32.4447 27.4826 17.208 2.83663
202 1 35.1106 25.9637 17.0745 1.61437
272 1 37.2587 24.4114 13.0677 3.79558
273 1 37.3847 23.6048 16.3895 4.95669
717 2 35.4533 23.6322 14.8878 3.46634
718 2 37.4092 27.2927 16.8009 3.62071
274 1 39.7281 26.3371 17.2384 4.27339
344 1 41.5569 24.9322 14.0065 3.36751
345 1 41.0567 23.342 16.3022 2.97025
789 2 39.181 26.1412 12.6287 3.60745
790 2 42.5864 25.3632 16.3301 2.21689
346 1 45.3545 25.6713 17.5344 2.88908
416 1 46.866 24.0358 14.5341 1.65624
417 1 47.6772 24.2854 16.6297 1.30867
861 2 43.5653 26.1369 14.3515 2.95438
862 2 46.9405 26.7944 16.2962 3.29027
418 1 49.48 25.1112 18.1732 3.89512
501 2 49.3464 26.4655 14.8753 2.90251
68 1 24.9696 26.6573 13.8489 1.04158
69 1 25.343 28.3915 16.4304 1.14235
70 1 27.1436 29.3083 17.836 3.20241
140 1 30.1912 27.5799 13.3596 3.48511
141 1 29.8179 28.6558 16.6491 2.93712
142 1 32.0025 29.9868 17.886 2.73628
212 1 35.7566 27.4418 14.4227 3.63858
213 1 35.298 28.9039 16.8146 2.83547
214 1 37.8063 30.1077 17.3612 3.07091
284 1 39.537 28.5506 13.5809 1.2785
285 1 39.6654 28.3105 16.1687 1.82865
286 1 42.6169 29.0702 18.3952 1.19806
356 1 44.7456 28.9341 13.9793 1.39067
357 1 43.9847 28.0788 16.4433 2.8613
358 1 47.643 29.5406 18.8542 3.59536
428 1 48.7659 29.4208 14.2155 2.79635
429 1 49.4803 28.543 17.1257 2.76145
430 1 52.0242 29.6217 17.7674 2.65392
443 2 11.2317 5.9259 18.0403 3.12863
444 2 13.0558 7.43367 19.7496 2.93629
515 2 15.7225 6.30959 19.2647 5.71756
516 2 17.4754 7.01283 20.3738 3.82798
587 2 35.003 30.6616 19.0355 3.00185
588 2 23.6291 8.22797 18.5819 3.60605
659 2 40.6311 31.0263 18.7603 2.69815
660 2 28.9098 6.83467 20.6017 3.57668
721 2 32.3058 8.28083 22.5883 5.89508
731 2 45.3375 29.7334 18.102 3.35171
732 2 32.8048 8.04491 20.2654 3.39355
793 2 51.8822 32.3137 22.1068 2.57668
803 2 49.8422 31.2166 19.9748 3.48017
804 2 37.7133 6.75877 19.9301 3.30436
11 1 15.786 8.47785 20.5891 3.82665
455 2 42.6129 10.7991 18.809 3.23165
456 2 16.3427 10.4266 19.9188 3.02273
12 1 19.2327 10.5405 22.353 1.25532
23 1 18.5647 12.7471 20.4045 3.47132
83 1 20.38 7.94832 20.5392 2.81119
527 2 18.3927 9.32173 18.6897 2.86565
528 2 21.1966 12.7317 20.6725 2.2321
84 1 22.5151 9.09125 22.2386 3.66323
95 1 23.8605 13.025 21.0732 3.83049
155 1 25.2095 8.82745 20.7106 4.08335
599 2 23.4647 10.9312 19.6934 3.76416
600 2 25.1648 11.3649 19.6452 9.21657
156 1 28.3386 9.78924 22.1308 2.60097
167 1 27.4833 12.8871 20.6746 1.40584
671 2 27.517 10.3453 18.6 3.48249
227 1 30.5573 9.01268 21.0242 3.04077
228 1 33.227 10.4952 22.0932 3.70943
239 1 32.2984 13.4164 20.8686 1.59417
672 2 29.9796 12.1193 19.4041 2.48067
743 2 33.6148 11.5593 19.0976 3.36455
299 1 35.5626 8.91356 20.5029 3.73485
300 1 37.8135 10.6089 22.104 2.74948
311 1 37.9123 13.2322 20.4069 3.23033
733 2 20.5453 3.71016 -0.666761 3.46378
744 2 35.335 11.8573 20.516 1.8273
815 2 37.5082 10.6704 18.6996 3.23118
371 1 39.4788 8.49067 20.5157 2.84876
372 1 42.3804 10.1541 21.7292 4.94622
383 1 42.4663 13.2195 20.2655 2.91449
805 2 39.4541 13.1287 21.8421 3.38158
816 2 40.3731 12.2498 20.1748 3.58816
24 1 6.37307 6.00183 -0.691644 3.61991
35 1 19.9459 16.9585 20.7861 3.58783
468 2 17.7514 15.9102 18.939 4.6413
539 2 20.478 15.1799 18.6699 2.80016
96 1 25.7665 14.192 22.1225 1.33948
107 1 26.4503 17.0439 21.7052 3.49532
540 2 22.1699 16.7732 20.5732 2.84499
611 2 24.3772 16.213 20.2103 1.99878
612 2 28.1234 15.781 20.6527 3.66106
168 1 30.2453 14.5421 21.3711 3.50639
179 1 29.362 18.0148 21.9334 2.7227
683 2 30.7226 14.0566 19.0007 7.01677
684 2 32.5544 16.0362 19.6873 2.95805
240 1 34.6424 15.1744 22.527 3.28807
251 1 34.8668 16.9292 20.49 1.33972
745 2 38.3266 15.6936 22.5593 1.92148
755 2 34.7766 13.9321 20.5479 2.59737
756 2 37.5606 16.2903 19.3316 3.36398
312 1 40.8999 15.1982 21.6385 1.36637
323 1 39.8617 17.4131 20.6951 1.543
817 2 28.655 8.04184 -0.226614 2.80608
827 2 40.1405 14.8083 19.5438 3.14458
828 2 42.7214 16.6742 19.2387 3.21548
384 1 44.65 14.3238 20.6144 2.96439
395 1 45.1801 17.2634 20.5243 2.63518
467 2 16.583 12.3081 19.1744 3.35995
480 2 20.2112 19.2895 21.1793 3.77974
36 1 22.2349 18.9754 22.4496 3.07764
47 1 23.2086 20.9615 21.3418 3.18145
48 1 25.7027 22.3574 21.969 3.3169
551 2 23.1662 18.5951 18.9376 1.8251
552 2 25.5614 19.6486 19.4795 6.46709
563 2 25.6333 23.5103 18.6574 7.961
108 1 27.3783 20.1477 21.9562 1.32191
119 1 26.9797 21.5589 19.8107 1.13302
623 2 28.7768 18.4386 19.2324 2.83272
120 1 29.589 23.3833 21.5482 4.24429
180 1 32.6299 18.5394 21.8251 2.82832
191 1 32.7856 21.1532 20.6112 2.5914
624 2 30.0373 20.4602 20.5727 2.08986
635 2 31.4529 24.5562 19.3203 2.07332
695 2 32.6075 18.3161 19.0632 2.00731
192 1 34.9943 22.1587 21.821 1.29444
252 1 36.2731 17.8532 22.6092 4.22027
263 1 37.2031 21.1649 20.6456 3.06927
696 2 35.6364 18.8694 19.9396 5.90863
707 2 34.8743 22.4385 18.7221 3.82395
767 2 38.8882 19.0344 18.7055 2.62712
264 1 39.5224 23.3941 21.2308 4.27176
324 1 41.6662 18.2502 21.4727 1.6747
335 1 42.4879 21.2354 20.715 3.80864
757 2 40.1888 21.141 21.5902 2.8556
768 2 40.0383 21.4488 19.0418 5.36021
779 2 39.847 24.2582 18.6175 2.83664
839 2 41.3727 19.6392 19.8234 5.77484
336 1 44.6693 22.9166 22.2557 3.12906
396 1 46.9378 19.3484 21.9112 3.14247
407 1 47.1601 21.9852 21.0982 2.88049
479 2 46.8214 18.6868 19.0101 3.23468
829 2 42.8588 20.4496 22.6918 6.87468
840 2 44.3172 19.7767 20.7193 2.64447
851 2 45.3636 22.0336 18.9896 2.01043
408 1 49.7595 23.646 21.9793 3.27173
491 2 49.6531 22.5583 19.3861 2.15602
59 1 24.5753 26.6773 21.4423 4.20495
492 2 23.2885 23.6538 21.2202 2.07063
503 2 51.2356 26.9331 18.6445 2.51632
60 1 14.1314 19.3949 -0.505114 3.00476
564 2 28.1075 24.2927 19.9261 3.38027
575 2 28.5235 26.7394 18.8632 1.84698
131 1 30.506 26.1605 21.1893 3.16254
132 1 33.0487 26.6204 22.1768 1.34607
636 2 33.9918 24.291 18.8442 3.80032
647 2 33.6219 27.8547 19.0657 2.02165
203 1 35.2252 24.6597 20.7665 3.56396
204 1 37.038 25.5622 22.1889 3.65165
708 2 37.0981 23.8662 19.5571 3.20131
719 2 37.6028 25.9828 20.3235 3.69811
275 1 40.1129 25.7722 20.56 1.61417
276 1 41.7721 27.8569 21.1713 1.42637
769 2 27.4399 15.8079 -0.251163 2.44987
780 2 41.8912 24.4013 21.4747 3.01305
791 2 42.1363 25.6258 18.953 1.46937
347 1 44.3497 25.1248 20.4536 3.65296
348 1 46.6998 26.3684 22.5362 3.12031
841 2 33.5703 16.2073 0.332773 3.08876
852 2 47.1643 24.2336 19.5585 2.99164
863 2 47.407 27.3573 20.3177 2.85042
419 1 49.2192 25.5992 20.7437 1.3089
420 1 51.2238 27.057 22.253 1.46172
504 2 25.1701 28.3729 19.5692 5.03408
71 1 27.6497 29.5851 20.5431 2.79179
72 1 29.8127 31.2669 21.6754 2.85238
143 1 33.8185 29.1996 21.4052 3.12477
576 2 30.9993 28.2638 20.0159 1.80254
144 1 35.1852 30.7728 22.6096 1.33254
215 1 36.9252 31.4447 21.0743 3.55847
648 2 36.6646 28.9077 20.3845 2.03479
216 1 41.1976 31.4298 22.0885 3.62055
287 1 43.5482 29.7472 20.4509 1.64434
720 2 39.7242 28.3886 19.2332 1.79898
288 1 30.2269 23.5328 -0.420881 3.31812
359 1 46.2812 30.1707 20.7337 1.25909
781 2 30.3701 21.2463 -0.536472 3.57177
792 2 45.2549 27.7525 19.9692 2.38045
360 1 49.724 30.2614 21.772 1.88334
431 1 52.2849 29.5829 21.7426 1.13504
853 2 34.0687 19.5512 -0.734432 5.77542
864 2 49.9645 28.3357 20.6599 6.14291
432 1 54.4099 31.1588 21.1467 1.18073
ITEM: TIMESTEP
375
ITEM: NUMBER OF ATOMS
864
ITEM: BOX BOUNDS xy xz yz pp pp pp
-1.0927756180725439e+00 5.7311368735211659e+01 1.4675759464302892e+01
-1.0377567556657412e+00 3.2803738788197620e+01 1.4587911293178276e+01
-9.0667872084051149e-01 2.2915280666673521e+01 8.4223345120308721e+00
ITEM: ATOMS id type x y z f_grace_gamma
433 2 41.886 7.55557 22.7791 2.72726
434 2 2.0563 0.701339 -0.48843 1.83031
435 2 16.4794 24.6676 2.68433 6.31065
445 2 16.5664 11.4985 22.42 2.05592
1 1 3.93872 2.30775 1.29945 1.14222
2 1 6.03729 3.33686 0.497687 1.28191
505 2 19.3472 23.9178 -0.434924 3.26282
506 2 6.5766 0.6537 0.675392 5.89658
507 2 6.11802 0.362714 2.90034 3.53645
517 2 22.3467 11.1911 22.1029 4.07239
73 1 8.69988 1.39472 0.983052 1.43253
74 1 11.6368 3.27433 1.31764 1.5156
577 2 38.9945 32.313 22.8291 6.21152
578 2 11.8054 0.238508 0.0117158 5.97842
579 2 11.0826 0.456314 2.9209 2.09801
589 2 24.3126 10.6807 22.8304 3.0282
145 1 13.747 1.08258 1.25893 0.894179
146 1 14.9625 3.05765 1.0605 1.03755
649 2 28.4592 23.8231 0.486599 4.73667
650 2 16.6761 0.970527 -0.142783 6.33155
651 2 16.1712 0.401724 1.81729 6.65819
661 2 30.9764 11.82 21.7192 3.08809
217 1 18.4639 1.69979 1.18898 4.75182
218 1 20.7098 3.24853 2.30397 2.82341
722 2 21.0655 -0.168141 -0.223841 6.37864
723 2 35.7718 25.2014 3.68898 2.34282
289 1 22.9185 1.52826 0.95375 3.1407
290 1 26.9317 3.32556 2.68633 3.92105
794 2 26.0218 1.5248 0.332653 2.07147
795 2 39.001 25.7034 3.05573 1.85173
361 1 28.6799 1.79971 1.62735 1.98525
362 1 30.6491 3.03668 2.02135 1.54703
13 1 5.71658 7.29507 1.66453 4.0253
446 2 4.13347 5.32857 0.263547 3.1614
447 2 4.65483 4.26727 2.17657 7.67537
457 2 46.8715 15.5324 21.7727 2.86058
14 1 8.41785 7.52213 2.82888 3.01154
85 1 11.2634 5.53443 1.73471 2.81529
518 2 8.98452 5.98212 -0.228263 2.85327
519 2 8.54492 3.98757 1.2006 2.66667
529 2 7.39287 8.27589 0.50614 3.25646
86 1 12.9639 8.71988 2.4714 1.24554
157 1 15.5121 5.67546 -0.1029 3.67291
590 2 12.8079 3.37913 -0.84979 6.6999
591 2 14.7941 5.57613 2.71747 2.9351
601 2 12.6932 6.79316 0.293707 3.64232
158 1 19.3546 7.45718 1.15688 3.47999
229 1 21.1923 5.52466 1.65652 1.24688
662 2 17.3413 3.28507 0.0881528 2.73327
663 2 18.3978 4.90833 2.08984 1.97723
673 2 18.6623 5.61145 -0.34343 5.83328
230 1 22.6858 7.47279 2.15518 1.17941
301 1 26.1605 5.74161 0.266466 3.06886
734 2 23.1134 4.41155 0.580163 2.02332
735 2 23.8825 5.3585 2.67793 8.54074
302 1 27.0221 8.04345 1.95083 2.80837
806 2 28.6351 4.38512 -0.410118 2.53679
807 2 28.9947 5.49926 2.41685 1.75369
373 1 30.6902 5.75678 -0.29932 4.26297
374 1 32.407 6.88512 2.74284 3.88911
458 2 19.5641 16.6038 22.8809 2.86733
25 1 8.0102 11.5262 1.65529 2.73625
26 1 11.6845 10.4285 2.18153 1.47555
470 2 8.38444 13.556 0.210642 2.87744
471 2 37.1621 13.7732 3.80167 10.0997
530 2 10.3166 9.02908 0.495585 2.19943
531 2 10.7904 7.97751 3.35479 6.07687
541 2 10.9248 11.5907 -0.538281 2.73155
97 1 13.5798 9.89416 0.331881 1.61266
98 1 14.609 13.5823 2.73488 3.15123
542 2 12.8252 12.4725 1.08275 6.68806
543 2 12.6018 12.5888 3.23937 6.03545
602 2 17.4072 8.35671 0.495124 3.01105
603 2 15.7492 9.55977 1.97277 1.62909
613 2 15.894 12.5293 -0.27267 2.76793
169 1 17.6234 11.2028 0.66231 2.79605
170 1 20.3948 11.6737 1.72457 1.25489
614 2 18.5761 13.2916 -0.620108 2.98966
615 2 20.1944 14.4056 3.33798 1.85843
674 2 19.4983 9.6325 0.493732 7.74029
675 2 17.9987 10.0161 2.60363 3.03423
685 2 35.3465 19.7541 22.62 7.46755
241 1 23.2733 10.3359 1.6288 1.19652
242 1 25.4481 11.1692 1.89114 1.46815
686 2 23.2341 11.1933 -0.850114 2.74598
687 2 24.0189 12.7272 1.05216 3.21
746 2 25.6811 10.8708 -0.384952 7.27347
747 2 24.2481 8.61689 0.22701 3.57494
313 1 27.8213 10.4034 0.391612 2.25676
758 2 27.5594 12.5795 1.51997 2.75889
759 2 29.7343 14.062 4.45897 1.92266
314 1 30.2697 11.9125 1.85097 2.95962
385 1 33.0571 10.3336 1.39333 3.04484
818 2 30.7597 9.94655 -0.208667 2.36077
819 2 30.5121 8.70752 2.62044 2.12362
830 2 32.1434 12.6116 0.537032 6.27975
831 2 32.4981 13.7407 4.65459 2.50092
386 1 33.8662 12.6476 2.6721 3.43156
459 2 34.9111 10.2386 2.42361 3.97823
469 2 34.3287 13.8401 0.522824 2.57166
37 1 10.2383 13.426 1.71354 3.45157
482 2 39.7169 18.1941 1.7456 3.45759
38 1 12.9764 15.3066 1.97388 1.76658
109 1 16.1943 14.6108 0.759016 3.11307
553 2 13.1903 15.8234 -0.845022 2.32815
554 2 15.2254 17.2098 0.0828713 2.23891
555 2 16.1314 16.2587 3.13964 1.86089
110 1 19.004 16.5845 2.05799 3.89181
181 1 21.5458 13.7025 0.553401 3.01204
625 2 32.3423 24.5387 22.8207 2.95594
626 2 20.4579 16.8403 -0.207094 3.10708
627 2 20.9204 16.3555 3.81138 1.99146
182 1 23.5178 15.9536 2.40936 1.45523
253 1 25.93 14.9687 2.53111 4.19729
697 2 37.7341 22.8113 22.7863 5.90462
698 2 25.5672 17.6826 -0.849353 5.61689
699 2 24.5701 18.4401 3.84455 7.25549
254 1 28.631 15.3871 2.35683 3.07209
325 1 30.5229 14.2756 1.26114 1.07159
326 1 31.5833 17.0756 1.27451 3.61772
770 2 44.5501 26.3727 22.3774 3.34258
771 2 29.1971 17.67 1.97778 6.97145
397 1 33.5237 15.7496 3.08824 3.29197
398 1 37.9025 15.6644 2.55255 3.48258
481 2 11.3095 16.429 1.0161 3.31011
842 2 37.6312 15.5237 -0.462985 2.27265
843 2 35.9493 17.2153 2.3868 3.54923
483 2 12.1856 16.7018 3.98975 2.76763
493 2 12.1172 20.5655 -0.644972 10.4668
49 1 13.4466 17.5754 1.56781 3.1395
50 1 15.5221 20.153 2.23072 3.18362
61 1 16.4158 23.4118 0.601053 3.35014
494 2 41.5866 22.487 -0.707183 6.54445
495 2 41.3352 22.1767 3.58983 3.74749
565 2 31.3573 28.4841 22.8662 3.39257
121 1 18.1923 18.5557 1.02355 1.42606
122 1 20.7505 19.4588 1.69776 3.11764
133 1 20.8643 23.2261 1.60512 1.39101
566 2 18.6535 21.2643 0.866522 3.05371
567 2 17.0349 21.8296 3.01982 2.82836
637 2 36.7154 27.9702 22.4367 2.51324
193 1 23.8773 17.9603 1.0147 3.18234
194 1 26.0262 20.7081 0.365316 2.93984
205 1 26.1139 23.4653 1.04897 1.20941
638 2 22.65 20.9957 1.19863 3.27568
639 2 24.3048 22.1536 2.17956 3.06137
709 2 39.2451 30.0756 22.3522 1.99657
265 1 28.2207 18.7025 0.172448 3.61071
710 2 28.6212 20.9932 -0.018229 3.17484
711 2 28.4695 20.2086 2.75964 2.95085
266 1 31.1466 19.3153 2.50457 1.37858
277 1 30.0456 22.4123 2.38027 3.35494
337 1 33.0541 19.3558 0.789547 1.93426
782 2 48.4237 32.045 22.8148 2.74395
783 2 33.852 21.1332 2.33645 2.98469
338 1 35.8696 20.2609 1.09815 0.99557
349 1 35.7948 23.0729 0.50326 1.24164
409 1 37.2247 18.3415 1.16964 1.64455
854 2 38.7845 19.5534 0.281562 3.73392
855 2 39.07 22.997 3.62049 2.15723
410 1 40.7591 20.6051 2.02601 3.69049
421 1 39.6713 22.9984 0.170656 2.90443
62 1 18.7584 25.2305 1.83532 1.52251
134 1 23.7004 24.4676 1.71608 0.978631
206 1 28.9886 24.7374 3.41332 2.59224
278 1 33.5845 24.5356 1.25241 3.19618
350 1 37.8421 24.3545 1.34944 3.7332
422 1 43.2723 24.7777 2.16211 4.09081
3 1 6.77197 2.50672 3.35649 4.18764
436 2 19.9382 26.2369 5.68863 2.36614
437 2 18.6209 26.8559 7.59677 3.52619
438 2 22.4812 27.2375 7.31593 3.87171
75 1 11.5579 3.12153 4.51507 2.98828
508 2 9.31771 2.40865 2.89842 7.92919
509 2 23.6561 24.4616 9.00785 3.64755
510 2 10.3657 2.43158 8.60333 2.59553
147 1 14.6987 3.94406 4.01593 2.87102
580 2 13.7062 1.64174 3.8427 3.36204
581 2 28.5252 26.9156 6.51925 2.30827
582 2 15.3716 2.54672 8.12827 2.37281
219 1 21.6341 5.05446 4.52599 3.31361
652 2 18.9239 1.3066 3.24339 2.56431
653 2 18.9577 3.08033 7.2464 2.31525
654 2 22.7341 3.13275 8.06396 1.89736
291 1 25.6001 2.93056 5.13841 2.9862
724 2 22.9426 1.85577 4.58882 1.88055
725 2 38.8352 26.5735 6.99147 1.96687
726 2 25.1816 3.57647 8.15543 2.6294
796 2 28.1837 2.43485 5.16104 2.27801
797 2 27.1787 2.08369 6.95007 3.11933
363 1 31.9377 2.58333 4.44503 3.22752
798 2 30.6756 2.7832 7.25557 2.54726
448 2 6.64071 4.79666 2.88882 3.19201
449 2 6.62855 5.98134 5.98738 1.77149
4 1 8.92504 4.25635 4.37613 3.23716
15 1 9.11498 6.62583 5.2994 1.57513
450 2 8.40632 7.45502 8.39523 3.99583
520 2 11.7928 5.67618 4.25692 3.14376
521 2 10.0398 4.98918 6.81899 2.39039
76 1 13.5952 5.30509 6.08335 3.48454
87 1 14.1151 7.74871 4.76971 2.80182
522 2 11.1623 6.58336 7.9589 3.68448
592 2 16.6154 6.78748 2.78479 1.942
593 2 16.468 3.60423 5.74912 2.23367
148 1 18.5813 5.21407 4.60123 4.11256
159 1 17.8311 8.03717 4.90225 2.76295
594 2 19.4722 7.97583 7.29457 2.1321
664 2 21.064 8.91636 3.07185 4.02805
665 2 20.6004 6.51607 6.03299 2.67482
220 1 24.0718 4.86808 5.11415 1.36359
231 1 23.3784 7.19987 4.64031 1.28681
666 2 22.7488 6.41891 7.53885 2.55804
736 2 26.3159 6.68148 3.68799 7.46014
737 2 25.6086 5.50677 6.67811 2.91834
292 1 28.1761 4.54549 7.64545 4.30972
303 1 28.2062 7.58012 5.02613 3.39223
738 2 26.4431 9.09217 8.27228 2.35808
364 1 33.707 3.7282 6.68106 5.41863
375 1 33.0121 6.8365 5.14988 3.48583
808 2 30.7715 4.58567 5.47195 2.48297
809 2 31.3506 6.45868 6.81693 2.6833
810 2 33.4054 6.76755 7.85823 3.75583
16 1 10.7164 8.56151 5.68901 2.98555
27 1 10.3644 11.8316 5.29844 2.88686
460 2 8.76494 9.72286 3.84434 2.27422
462 2 39.511 13.4406 7.54015 2.95834
28 1 13.5944 12.5499 5.8045 3.15615
88 1 15.9279 9.03025 6.13918 1.44036
99 1 15.4787 11.5679 4.49422 4.02045
532 2 13.1499 10.0521 5.184 3.2754
533 2 13.9667 8.87739 7.53261 3.70301
534 2 15.5676 12.8391 7.30323 2.42857
100 1 18.0764 13.9383 7.86521 3.9139
160 1 19.9747 9.87706 5.02263 3.53336
171 1 20.446 12.16 4.3038 3.5968
604 2 17.1075 13.1487 2.8144 1.98123
605 2 17.668 10.7335 7.41566 2.32063
606 2 20.2865 12.1587 6.57851 3.55881
172 1 22.8623 13.5107 6.29253 6.20763
232 1 26.1496 9.06294 3.7704 1.27605
243 1 25.6105 11.5314 6.68341 4.702
676 2 22.6085 9.83994 5.12247 2.21224
677 2 23.0317 10.2351 7.10782 2.2445
678 2 25.2144 11.46 8.89325 6.59171
244 1 28.2433 11.7872 5.21541 4.79722
748 2 28.6901 10.476 3.47732 3.07109
749 2 27.1351 9.46081 6.42302 7.78043
304 1 29.8413 9.30059 5.96532 2.44403
315 1 31.7531 11.7294 5.5058 2.94875
316 1 35.4381 13.403 6.25709 1.40792
750 2 30.2021 11.2666 7.41412 6.4465
820 2 32.2466 10.0041 3.79365 6.68928
821 2 32.2445 9.0373 7.14348 4.15501
376 1 7.4798 8.49653 6.10147 2.7018
387 1 34.2529 10.1001 5.38889 3.90051
388 1 37.674 13.1702 6.07598 1.80534
461 2 11.423 10.5662 7.36886 1.8675
822 2 38.3174 11.153 7.84257 2.43106
472 2 11.4087 14.381 3.75046 3.00285
39 1 14.0177 16.4177 6.41859 3.93465
40 1 16.4339 18.0512 5.75511 1.49441
474 2 41.2548 16.058 8.93822 3.25264
544 2 17.2832 14.5756 4.87056 2.56301
545 2 16.3863 16.3233 6.94717 5.13793
111 1 18.8962 17.315 5.85741 2.99477
112 1 21.5824 17.4704 6.89516 3.98512
546 2 19.8276 16.5741 8.40674 3.25611
616 2 22.4311 12.5503 2.92684 3.77849
617 2 20.5001 14.7526 6.3528 2.08868
183 1 23.2264 16.2528 4.83507 3.45069
184 1 26.0044 18.0861 5.85765 3.64284
618 2 22.0898 15.4994 9.77247 2.17485
688 2 26.4314 12.482 3.76563 2.25604
689 2 24.9946 15.48 6.18221 2.82779
255 1 28.3621 16.5342 4.63193 2.80131
690 2 26.9141 15.5354 8.28137 3.0535
256 1 31.0027 16.6184 6.88865 3.84355
327 1 34.3868 15.9819 5.73272 2.92522
760 2 31.5444 14.1393 6.62901 3.20503
761 2 29.0487 14.3047 8.52478 9.28154
762 2 32.5166 14.9457 8.18786 3.50208
328 1 35.665 18.5158 5.88562 3.13954
399 1 38.5169 17.6389 3.76425 3.41783
832 2 35.9983 15.0769 4.11272 8.14078
833 2 36.7501 15.0882 6.70339 7.46561
834 2 38.6291 16.3404 7.40403 2.31419
400 1 41.0482 17.8683 6.21305 3.20613
473 2 11.9151 15.1889 6.36127 1.83858
51 1 15.5101 20.6148 4.88799 3.16287
484 2 13.9953 18.2635 4.44644 3.14866
486 2 44.1809 20.4842 8.73467 3.0037
496 2 15.0436 23.1441 3.58783 2.79566
52 1 19.1556 20.6965 5.5209 3.8492
123 1 19.6031 21.3375 3.05171 2.65394
556 2 18.349 18.9258 3.51994 6.09198
557 2 19.4842 18.6624 7.93172 5.64309
558 2 22.3463 19.9919 8.33136 2.98207
568 2 21.3118 23.3521 4.45976 1.94264
569 2 21.788 22.8695 6.75542 2.19084
124 1 23.8985 21.3157 5.75222 4.26863
195 1 25.0682 20.6642 3.85004 3.54711
628 2 22.0714 18.639 3.38756 2.04916
629 2 23.936 18.5306 5.84582 3.39741
630 2 27.1001 18.8834 7.8812 2.7545
640 2 27.0858 23.5719 4.81508 7.33339
641 2 28.2518 22.8819 7.87657 3.22402
196 1 27.3993 21.3011 5.1951 4.2781
700 2 26.6191 18.4656 2.61547 1.84559
701 2 27.9398 17.2204 7.92401 8.36815
267 1 29.221 18.7368 4.71382 3.3511
268 1 33.4801 21.8976 6.09354 3.10762
702 2 30.4946 19.2881 6.73952 2.51505
712 2 32.1437 21.0024 3.60615 2.14123
713 2 29.6168 21.4902 5.29891 3.33959
772 2 32.6895 18.3728 4.63398 2.37384
773 2 35.1603 16.6897 8.24042 3.8786
339 1 35.2046 20.6185 4.6473 1.08865
340 1 37.7744 21.6775 5.23684 2.81592
774 2 36.4266 20.2903 7.10542 6.34416
784 2 36.5468 22.7492 3.06932 7.40544
785 2 35.7167 23.0672 6.33003 6.26551
844 2 37.0211 19.6729 3.31948 6.64406
845 2 37.8332 18.3373 6.96318 2.38774
411 1 40.4595 20.3797 4.7083 4.83688
412 1 43.6629 22.5922 6.51492 3.55061
485 2 14.2394 18.8223 6.64724 6.03498
846 2 40.6938 19.7198 7.37243 3.59274
856 2 41.6805 23.9241 1.52597 3.95256
857 2 39.7988 23.0049 8.19096 3.73969
497 2 17.1461 20.2026 7.02443 2.77376
63 1 18.5313 24.0177 4.02877 2.86592
64 1 22.9913 25.2696 6.40707 3.85724
498 2 18.9206 23.4257 6.49262 3.03365
135 1 24.7395 23.708 5.09706 1.32373
136 1 26.3138 25.3827 6.60376 1.658
570 2 24.9862 23.0192 7.75251 5.7305
207 1 29.6339 23.8471 5.84605 3.36696
642 2 28.4649 25.7904 8.44093 2.96794
208 1 31.6668 25.6664 4.95044 4.11598
279 1 34.0289 23.3553 4.00302 2.41806
714 2 34.03 23.8118 7.95737 6.51489
280 1 35.5785 26.1381 6.90497 3.33767
351 1 37.4045 24.3151 5.35154 2.87418
786 2 37.4349 24.3774 8.42463 3.61692
352 1 40.4596 25.4494 5.10353 3.76676
423 1 43.0288 24.9536 5.88495 2.70168
858 2 43.3032 24.0431 8.54779 3.11087
424 1 45.425 25.6982 5.03788 3.36652
439 2 47.7202 28.8577 12.7617 3.6873
511 2 9.59524 3.40761 11.5439 3.20081
583 2 30.8167 26.0152 10.974 2.26259
655 2 35.8965 27.5011 10.9336 3.38783
727 2 25.9154 3.24426 10.3406 3.17023
799 2 30.8177 3.56908 10.4958 2.35895
5 1 6.56677 3.36162 10.3405 3.52957
6 1 11.8336 5.18433 11.2005 1.84852
7 1 11.8774 5.59716 13.2724 1.70755
440 2 8.15449 4.54922 12.4876 3.36122
451 2 10.2525 5.96363 9.15436 2.55282
77 1 12.7555 3.54878 8.47251 3.83462
78 1 15.6995 5.5742 8.62001 3.3601
79 1 15.3155 5.02956 13.2931 4.77268
512 2 15.7296 3.95789 10.5085 2.37124
523 2 14.1778 7.12773 9.97897 2.79947
149 1 18.0582 5.10141 8.69985 4.01437
150 1 20.5303 4.87265 10.0046 4.46075
151 1 20.0591 6.17952 13.7153 3.7732
584 2 18.1376 4.65051 12.0391 2.05715
595 2 18.0975 7.15249 11.851 1.92857
221 1 23.3895 4.59559 10.4353 3.34065
222 1 26.3216 5.74645 9.14901 2.77417
223 1 26.15 6.65678 13.3908 3.0744
656 2 23.9061 5.21109 13.5465 5.39162
667 2 22.4309 6.73084 10.8914 2.38057
293 1 29.0082 6.25058 9.87844 4.11854
728 2 27.3993 4.89362 12.038 2.91203
739 2 28.8158 8.3611 11.805 2.17782
294 1 32.1204 6.39532 9.69066 4.10463
295 1 29.0995 6.00293 13.0473 2.78014
365 1 33.2427 4.32549 10.1993 1.62703
800 2 32.3721 6.46542 12.5282 2.65973
811 2 34.2156 6.35087 11.8774 7.57156
366 1 36.2208 5.89345 9.81359 3.67357
367 1 35.8735 6.22933 13.1037 3.78827
17 1 11.7599 8.68218 9.07241 3.45243
452 2 11.1422 7.65365 12.4505 4.23941
463 2 10.5025 11.0848 10.1401 2.60793
18 1 13.3835 10.2842 10.287 3.98545
19 1 12.7348 9.96041 12.7734 3.91224
29 1 14.354 14.6359 8.63008 4.35606
89 1 16.6879 9.0421 8.78356 4.39512
464 2 40.4812 12.9124 9.9601 2.25304
524 2 16.5226 9.61143 11.294 2.31606
535 2 13.699 12.9989 11.8138 4.78168
90 1 19.0284 9.56116 10.2273 4.43522
91 1 18.0498 9.33757 13.733 4.4448
101 1 17.915 12.4328 9.97001 3.67725
161 1 21.3347 9.38529 10.0045 3.66564
536 2 18.9181 12.0167 13.5364 1.86269
596 2 20.6829 10.2157 12.4362 2.56221
607 2 21.6386 12.5878 11.3036 3.67834
162 1 23.9981 10.2131 10.7257 2.3284
163 1 23.7584 10.6473 13.713 1.44748
173 1 22.2332 11.5142 9.20218 3.06187
233 1 24.8175 8.79262 5.72284 3.76855
608 2 22.8921 13.2047 13.5886 7.82448
668 2 24.825 7.29951 10.431 1.7449
679 2 26.8693 10.0233 9.98241 1.96824
234 1 27.8968 11.8886 7.62177 1.44736
235 1 28.4617 10.2191 12.9273 3.77067
245 1 27.0978 12.8029 10.145 3.16353
680 2 27.521 13.0915 13.2005 3.42193
305 1 30.4941 8.63388 8.99367 2.83096
306 1 32.5854 10.1894 9.87974 2.9283
307 1 32.9767 9.98586 13.0023 3.55753
317 1 32.7651 12.5104 8.0587 3.33984
740 2 30.9007 10.1275 11.9091 3.96702
751 2 29.1765 10.8858 10.0608 2.20831
752 2 34.0737 12.6498 11.9384 3.58539
377 1 34.708 8.5224 9.48892 2.93013
378 1 37.2227 9.42207 9.81355 3.33512
379 1 38.0245 10.2161 12.9155 3.42025
389 1 36.8355 13.3373 9.22935 4.59551
812 2 36.033 10.6233 11.5119 2.85101
823 2 35.5038 11.1309 8.38984 2.57966
824 2 37.5915 12.8739 11.9324 3.94827
30 1 16.4828 14.4677 9.6621 1.8887
31 1 16.0977 14.5369 13.4906 1.33923
41 1 15.9808 18.1415 9.08896 2.95382
476 2 14.112 15.9843 10.306 4.05239
102 1 20.2046 13.5728 9.33729 2.78935
103 1 20.8425 14.0186 13.6407 2.9299
113 1 20.7021 17.662 10.3919 3.15023
547 2 17.4622 16.7139 11.4254 3.10684
548 2 21.594 17.6996 12.6293 8.25947
174 1 25.0132 13.7743 9.91777 4.19462
175 1 24.6485 14.0331 12.6652 2.64518
185 1 25.3156 16.8191 9.01666 4.30814
619 2 23.4647 15.8485 11.214 3.10595
620 2 26.9995 15.2418 11.9872 3.74775
691 2 28.6126 14.7565 11.1571 7.85527
246 1 31.1353 13.5597 10.6148 3.67343
247 1 29.6858 13.8802 13.1878 3.13593
257 1 29.891 15.6929 9.29445 1.82301
692 2 30.6481 15.451 12.3004 6.93589
763 2 32.5151 15.7207 10.3126 3.70375
318 1 35.6621 15.352 10.0315 3.79963
319 1 34.9845 14.5577 13.326 3.00149
329 1 37.0209 18.1219 10.1171 3.76589
764 2 36.05 16.8728 12.4491 6.47535
835 2 38.5977 15.4001 12.025 3.003
390 1 39.3123 15.0786 9.49864 3.80134
391 1 39.9495 13.7912 13.827 3.62298
401 1 39.6392 18.4025 9.89171 3.59846
475 2 41.3046 16.6953 12.0223 2.11276
836 2 40.2907 18.437 14.0443 3.03359
42 1 18.5129 19.8379 10.2912 3.33167
43 1 18.3565 18.9296 12.9962 1.52289
53 1 19.8754 21.0893 7.98288 3.56361
54 1 19.1208 24.1387 9.39581 1.25267
55 1 21.705 25.1742 12.1286 4.469
488 2 17.5944 22.4027 11.6727 1.83285
559 2 20.3739 21.3654 11.8382 2.64043
114 1 22.8964 18.6054 10.6404 4.88883
115 1 23.7875 18.4708 13.5094 3.77616
125 1 25.581 21.1458 8.94126 3.53938
126 1 25.9348 23.369 10.0499 1.69912
127 1 26.6243 22.6885 12.6513 3.78933
560 2 23.1167 22.9991 10.049 2.77877
631 2 25.3434 19.6477 11.1666 2.83914
186 1 28.4779 17.8701 10.0868 4.3595
187 1 27.9194 19.4475 12.8911 3.27783
197 1 29.9512 20.7946 8.709 3.79776
632 2 28.1069 21.6177 10.6285 7.62982
198 1 29.4748 23.0053 9.93776 4.13541
199 1 29.6766 22.6087 12.3652 1.44231
258 1 33.1665 18.2152 8.90561 4.92505
259 1 33.0655 17.7527 11.8736 4.79895
269 1 32.4057 21.1352 8.38246 1.45909
703 2 31.0326 18.0736 10.915 3.21885
704 2 30.9729 20.4773 10.9617 7.08581
270 1 33.8675 22.2522 10.0864 3.61844
271 1 35.3773 22.1398 12.425 3.5938
330 1 38.228 20.4293 9.35982 1.22213
331 1 37.9638 17.944 12.8253 3.70631
341 1 36.6547 22.3494 8.34373 2.84977
775 2 32.4612 20.9074 12.2985 3.38265
776 2 37.7686 20.9987 12.476 3.97564
342 1 38.7344 23.1164 10.6023 3.00402
343 1 39.8685 23.6154 13.6993 2.94297
402 1 42.7242 18.5215 9.71017 3.28841
403 1 42.8152 19.1407 13.8749 4.01391
413 1 41.8764 21.4743 8.85236 3.35492
847 2 40.1592 20.774 11.2345 3.82284
848 2 42.1993 22.7007 12.0921 2.73628
414 1 17.3234 22.7301 8.7725 3.19139
415 1 45.5876 21.5787 14.3037 3.31132
487 2 16.3281 19.6722 12.0368 2.0078
65 1 20.9642 25.5335 8.62566 2.92672
500 2 20.5423 26.7638 10.9212 6.95773
66 1 22.8178 27.0535 11.4182 1.68173
67 1 22.375 27.0813 13.8139 1.80663
137 1 26.0802 25.7149 8.91997 1.4303
571 2 24.9421 24.9717 12.4049 3.39263
572 2 27.5523 25.4637 13.6898 2.36209
138 1 27.0868 27.8987 10.591 1.25935
139 1 27.2313 28.4576 12.921 1.25869
643 2 27.4278 25.4845 11.7426 3.68474
209 1 30.9642 25.1794 7.74263 2.57867
210 1 32.3183 27.8497 9.44471 2.72994
211 1 33.1476 26.8627 12.2566 3.32204
644 2 30.2099 25.4381 12.7984 3.1704
715 2 32.0743 23.2949 10.1397 5.75245
281 1 33.9103 25.8468 9.01157 2.8677
282 1 38.1327 27.0918 9.92352 3.74739
283 1 37.8108 28.6837 12.4677 1.38953
716 2 35.1813 25.5474 12.4369 8.42565
787 2 35.0129 24.1754 10.9013 6.10533
353 1 40.6609 25.2395 8.48097 3.45139
354 1 42.7596 27.4283 9.7766 3.81645
355 1 42.234 27.4862 12.6023 2.74284
788 2 41.5539 24.965 11.4752 2.06298
859 2 44.1568 22.1771 10.2134 2.07908
425 1 45.6127 25.0901 7.62734 2.863
426 1 46.8447 26.2965 9.59849 4.24958
427 1 46.3287 27.112 14.0425 3.4908
499 2 47.7996 24.8677 12.2417 2.31701
860 2 44.4249 25.3449 10.458 1.78808
441 2 51.714 29.283 15.2034 2.58511
442 2 10.0116 4.33038 14.212 2.74768
8 1 14.126 7.17015 13.8486 3.63813
9 1 13.6732 6.80528 17.0403 3.26234
513 2 27.6436 29.6763 14.9558 6.77693
514 2 16.0639 6.40786 15.99 3.35662
80 1 18.3644 7.49186 15.0091 1.71762
81 1 17.7846 7.22087 17.9871 3.30524
585 2 32.632 29.4675 14.5779 2.33865
586 2 19.5177 5.73899 17.1832 7.62306
152 1 23.3208 7.7758 12.9692 3.1759
153 1 23.2453 7.79755 15.7412 1.18307
657 2 21.9335 5.53262 15.0497 3.56786
658 2 24.9269 6.10997 15.6159 5.09939
224 1 26.7822 8.0809 15.3571 1.46179
225 1 28.1304 6.65835 17.2235 3.17384
729 2 27.3987 4.73306 14.94 5.65472
296 1 32.7329 7.33801 14.6495 4.34285
297 1 32.9945 8.89623 17.0134 2.94269
730 2 30.0075 5.18621 16.2644 2.85929
801 2 47.0773 29.1475 16.2826 2.39273
368 1 37.679 7.52367 12.2453 4.31636
369 1 37.7078 7.21739 17.7414 4.54068
802 2 33.9492 6.13176 16.7627 2.43765
453 2 39.0718 8.28255 15.3596 3.11496
10 1 15.1814 8.76263 18.1995 1.16404
20 1 15.874 11.2166 13.8558 3.8054
21 1 15.4018 10.6592 17.0966 3.77477
454 2 12.8751 9.05554 15.4375 2.14113
525 2 15.5094 9.40356 15.0316 5.78633
22 1 18.2809 13.8009 17.7045 3.43493
82 1 21.4663 8.12789 17.6408 3.12149
92 1 21.243 10.9206 15.133 3.89379
93 1 20.3881 11.161 18.16 5.25743
526 2 18.0632 10.5948 15.6926 2.84005
537 2 18.1738 14.3587 15.1643 7.60151
597 2 21.2539 7.70493 14.5216 6.2818
94 1 23.5146 13.1583 18.4212 1.63533
154 1 25.9715 8.46635 17.5797 1.28644
164 1 25.8816 11.3852 13.5635 3.12196
165 1 25.4579 11.2023 18.0703 3.81943
598 2 24.0191 10.9612 16.2324 2.16376
609 2 22.9619 13.8841 16.5297 3.60021
669 2 25.3285 8.92906 12.0387 2.7988
166 1 27.891 12.9661 18.2203 2.82522
670 2 28.4385 10.7822 15.6846 2.16351
681 2 29.2688 12.9949 16.0148 2.13591
226 1 30.8864 7.05022 18.4911 3.24632
236 1 30.7019 10.8392 14.3576 3.17753
237 1 31.1738 11.2415 17.3875 4.40325
238 1 33.6228 13.7011 17.7993 3.32541
741 2 29.5011 7.94667 16.2568 3.34223
742 2 33.5639 11.9558 16.1446 3.08263
753 2 34.7325 14.1702 15.7028 5.84709
298 1 35.4791 8.45467 18.3574 3.02104
308 1 35.0837 11.5797 13.7458 3.47863
309 1 35.6163 11.3146 17.5019 3.33219
310 1 37.2453 12.9265 17.831 1.62319
813 2 34.8869 9.6357 15.082 2.58827
814 2 36.8727 10.9589 14.6541 4.31457
825 2 37.4065 13.7799 14.6842 7.50899
370 1 40.4637 9.09463 18.2694 3.0013
380 1 39.6485 11.3659 14.1471 1.39398
381 1 40.1789 11.7197 17.2263 4.4104
382 1 14.477 13.1282 17.1561 3.42098
465 2 42.0184 12.3276 14.5566 3.80487
466 2 16.1212 13.0655 15.3924 6.39528
32 1 18.2708 16.1016 13.4333 3.70809
33 1 18.1377 16.8069 16.2281 1.01342
34 1 20.7029 17.6687 18.3051 2.96567
538 2 20.4247 14.4552 17.0129 1.87598
549 2 20.4049 16.8547 15.2904 3.42911
104 1 22.8904 16.0268 14.5698 3.85237
105 1 23.1847 15.6298 18.0197 4.23952
106 1 26.4196 18.0118 18.2752 5.37101
610 2 25.7579 14.0858 16.8736 2.76073
621 2 25.5618 16.6932 12.8921 1.94219
176 1 27.8066 15.6607 14.7431 3.70458
177 1 27.8472 15.7614 17.1965 1.63058
178 1 30.5887 16.209 17.9598 4.15695
248 1 32.5885 15.2483 13.7878 3.34559
249 1 32.8285 15.5325 16.3994 3.17896
682 2 30.4323 15.2287 15.6381 3.31626
693 2 29.588 18.3184 14.4008 2.57288
250 1 35.3268 17.3823 18.1786 3.85483
320 1 37.7955 15.643 13.8988 1.62251
321 1 37.7841 15.3544 16.734 3.42789
754 2 35.9197 14.9358 19.5872 7.85161
765 2 34.8061 17.7271 15.0059 3.76598
322 1 41.0603 17.356 17.8194 3.90262
392 1 13.5396 14.3292 13.1672 5.13863
393 1 16.2281 15.395 16.2289 1.07101
826 2 40.5591 13.9231 17.064 2.45685
837 2 41.4409 15.6163 15.587 1.94126
394 1 45.3135 17.9711 18.1065 2.79234
477 2 15.0143 17.2599 12.156 1.82703
44 1 21.6674 19.3746 14.0517 4.5776
45 1 21.5509 20.2702 17.5345 3.63437
478 2 18.7958 19.5629 15.8585 4.28436
490 2 21.3525 24.3156 15.573 2.27317
46 1 23.679 22.0386 19.1248 3.04883
116 1 26.1618 20.8589 14.1785 3.34054
117 1 25.7806 20.9564 17.0467 2.97851
550 2 23.8688 20.0809 15.4753 2.24357
561 2 22.4686 22.2004 12.9184 3.17062
562 2 27.0802 23.5687 15.1529 2.12724
118 1 29.3573 22.5087 18.0466 3.15559
622 2 27.4664 18.9146 15.805 1.95852
633 2 29.036 20.8396 15.7444 1.95
188 1 30.5087 20.2028 12.872 4.17422
189 1 31.0761 18.9979 17.4193 4.47681
190 1 31.6649 21.4527 18.2758 3.52835
634 2 31.2144 23.6367 16.7041 6.81677
694 2 32.2089 18.65 14.2695 2.44138
705 2 31.8619 22.1015 14.2294 3.41832
260 1 35.6044 18.9559 13.7785 3.88624
261 1 36.1282 19.3481 16.5377 1.45088
262 1 37.1282 20.6681 18.0039 1.78467
706 2 34.0057 22.5856 16.8605 2.5329
766 2 38.6635 19.3034 15.9859 3.11195
777 2 36.6151 21.4173 14.9969 2.26447
332 1 40.3167 20.466 13.9192 5.21761
333 1 40.8596 20.6454 16.5233 1.40435
334 1 42.8017 21.647 18.4097 1.03931
778 2 38.7155 21.5842 16.1848 5.97904
838 2 43.6537 17.6926 16.4926 3.66386
849 2 42.6838 20.6546 15.739 6.7457
404 1 45.078 19.062 15.0892 1.42488
405 1 44.5584 20.3604 17.3166 1.09167
406 1 47.6674 21.8423 17.1738 2.8161
489 2 19.2864 21.9604 14.4846 2.11831
850 2 45.2738 22.9179 16.4397 2.62458
56 1 23.8458 24.8829 14.759 3.82527
57 1 23.0109 24.3649 17.5115 3.66971
58 1 25.2979 26.315 18.5679 4.30975
502 2 23.5818 27.5226 16.1231 6.75335
573 2 25.4061 25.708 16.1675 5.63171
128 1 29.671 23.8643 14.6574 3.83231
129 1 27.6996 24.7967 18.1027 2.89772
574 2 27.3498 27.2302 14.8184 9.19969
130 1 30.1166 26.1892 17.2984 3.91231
200 1 33.3013 24.0063 13.287 3.70047
201 1 32.6318 25.1165 16.6675 4.21631
645 2 31.7682 25.4078 14.2614 3.55015
646 2 32.3589 27.7471 17.4371 3.25314
202 1 34.8993 26.3029 16.7859 3.42296
272 1 37.3531 24.5248 12.8716 3.28431
273 1 37.6512 23.674 16.8246 5.5024
717 2 35.8002 23.7417 14.833 1.98434
718 2 38.0252 27.4321 17.5183 2.27077
274 1 40.4416 26.3419 17.1748 3.8234
344 1 41.9244 25.635 14.5268 4.06499
345 1 41.2694 23.2236 16.2161 3.28346
789 2 39.6311 26.2182 12.8946 2.32792
790 2 42.7797 26.3048 16.8008 8.30239
346 1 45.6388 26.1763 17.3529 3.09452
416 1 46.8849 24.3801 14.7495 3.08607
417 1 48.0717 24.2029 17.0671 1.45084
861 2 44.438 26.1428 13.348 1.97109
862 2 48.0214 26.9208 16.5407 2.90771
418 1 49.9776 25.82 18.0889 2.93541
501 2 49.2567 27.4074 14.8595 2.55112
68 1 24.9275 26.9498 13.7698 1.36437
69 1 25.4656 28.4958 16.1246 3.743
70 1 27.2906 29.357 18.0033 3.16899
140 1 29.943 27.8071 12.9425 4.35732
141 1 29.8231 28.7106 16.6662 2.81979
142 1 32.2245 30.2075 18.0913 3.66563
212 1 36.2223 27.5039 14.004 3.55014
213 1 35.4087 29.0443 17.1185 3.60318
214 1 38.0987 30.4609 17.1729 3.36913
284 1 40.134 29.1693 13.7482 3.42541
285 1 40.0844 28.7722 16.4346 3.27735
286 1 42.7273 29.2805 18.456 3.49037
356 1 45.2871 29.5734 14.0363 3.27127
357 1 44.2501 27.8955 16.6247 1.28808
358 1 48.5864 29.7508 19.3169 3.15767
428 1 48.8842 29.7948 14.4912 3.94714
429 1 49.8362 29.0184 17.3268 1.48385
430 1 52.0995 30.1593 17.4899 4.96413
443 2 39.6914 6.42152 18.2416 6.70575
444 2 12.7546 6.35927 19.1252 6.26698
515 2 30.0425 31.5278 19.4327 2.68487
516 2 33.1261 32.0468 20.8851 2.76684
587 2 34.5933 30.8412 19.5904 3.69023
588 2 23.9133 8.21869 18.9967 4.3419
659 2 41.2849 31.1847 19.1048 2.86925
660 2 28.3793 7.74329 20.3762 3.82991
721 2 32.3545 7.90872 22.3442 5.47388
731 2 44.9575 29.5817 18.5503 3.87864
732 2 33.0592 8.5272 19.2672 3.79129
793 2 37.5159 7.5178 22.288 5.939
803 2 35.4638 6.62157 20.0913 2.86491
804 2 37.984 6.4319 19.9453 7.46997
11 1 15.295 8.2619 20.8747 1.78275
455 2 42.6248 10.4088 18.6202 3.62905
456 2 16.6661 10.3169 20.1855 2.3094
12 1 19.5575 10.3838 22.5601 3.10211
23 1 18.4814 12.9188 20.4465 3.92279
83 1 20.6019 7.70163 20.5614 1.564
527 2 19.0874 9.09828 18.9219 2.87224
528 2 21.6056 13.6386 20.5198 2.14261
84 1 22.1477 8.79136 22.3039 1.51794
95 1 24.0226 13.6693 21.0812 3.28052
155 1 25.1718 8.70986 20.9058 3.94321
599 2 22.6129 10.4959 19.8541 2.40712
600 2 26.0279 11.1849 21.2069 2.1113
156 1 28.5845 9.49947 22.361 1.29137
167 1 28.0415 12.4342 20.6924 3.61182
671 2 28.7227 10.3137 19.2514 2.11386
227 1 30.5869 8.80388 20.8407 2.32716
228 1 33.5065 10.0189 22.0718 2.87459
239 1 32.423 13.3358 20.885 4.23451
672 2 30.3316 12.6158 19.187 3.86506
743 2 33.6785 11.3622 18.7847 3.20874
299 1 35.8839 8.85127 20.7648 2.92849
300 1 38.0187 10.5412 22.0786 2.4921
311 1 37.9437 12.8402 20.3976 3.17096
733 2 20.7061 4.07549 -0.316862 2.6651
744 2 35.4395 11.2161 21.5973 2.53025
815 2 37.8569 9.68518 19.1526 3.6292
371 1 39.7136 8.39259 21.0908 3.21651
372 1 42.7884 9.73817 21.5477 3.59939
383 1 42.7782 13.1592 20.4809 2.76053
805 2 39.6357 12.4604 22.7484 2.47063
816 2 40.5003 11.8403 19.3119 3.66303
24 1 6.76471 6.30381 -0.746154 3.73101
35 1 19.2819 17.2264 20.7072 2.93636
468 2 17.5663 15.643 19.0491 4.59606
539 2 20.7545 15.3356 19.1019 3.14292
96 1 25.8177 14.284 22.4804 3.65754
107 1 26.9628 17.1827 22.0602 2.7744
540 2 22.2159 17.0238 21.0892 1.80505
611 2 24.8602 15.9264 20.5547 2.22759
612 2 28.3802 14.9714 20.198 3.41705
168 1 30.5288 14.9759 21.4396 3.68657
179 1 29.5918 18.5018 22.1692 3.25678
683 2 30.5789 14.6201 19.2104 8.59786
684 2 32.8731 15.3728 19.8693 3.12066
240 1 35.0136 15.1382 22.7856 1.47191
251 1 35.1987 16.403 20.5489 1.85207
745 2 37.5095 15.05 22.2741 1.80078
755 2 34.9255 13.7106 20.815 6.63447
756 2 38.058 16.6548 18.9715 2.48625
312 1 41.2198 15.5022 21.368 3.67843
323 1 39.8334 17.239 20.2938 4.07913
817 2 28.705 7.52417 -0.0239474 2.33273
827 2 40.6652 14.057 19.0909 2.42467
828 2 42.9553 16.9781 19.9313 3.75463
384 1 45.0543 14.0396 20.0927 3.51818
395 1 45.6503 17.3758 20.7396 1.28509
467 2 16.5092 12.1436 19.1602 7.59743
480 2 20.3401 20.0109 20.9163 1.95839
36 1 22.1172 19.1075 22.9044 2.864
47 1 23.2135 21.0704 21.6567 3.51415
48 1 25.7906 22.4252 22.2438 3.37421
551 2 23.564 18.8704 19.5118 1.88368
552 2 25.6232 19.4909 20.5192 2.2048
563 2 24.8457 23.3959 17.4914 6.33302
108 1 27.8918 20.4105 22.1035 1.1183
119 1 26.6762 21.9672 19.3866 3.48201
623 2 28.9485 17.3063 19.3215 2.59507
120 1 30.06 23.0084 21.492 3.95003
180 1 32.8268 18.4703 22.0695 3.38284
191 1 32.9966 21.1197 20.9902 2.80789
624 2 29.9876 20.6912 20.2572 3.13422
635 2 31.608 24.2477 19.9699 2.12399
695 2 33.1046 19.2611 19.4953 2.74504
192 1 35.3397 22.3864 21.9423 3.38069
252 1 21.9797 9.43007 -0.801732 3.38213
263 1 37.4564 21.3942 20.8074 3.41587
696 2 36.0871 19.1046 20.5383 2.84844
707 2 35.8126 21.7804 19.2998 3.38626
767 2 38.971 18.8095 18.7961 2.7023
264 1 39.6448 23.8983 21.6652 3.10767
324 1 42.1901 18.4867 21.4397 2.4226
335 1 42.7259 21.8669 20.9964 3.24019
757 2 40.3178 20.8559 22.4735 2.18714
768 2 40.2097 22.2143 19.092 2.95097
779 2 40.6858 23.9407 18.3284 3.567
839 2 41.2286 19.5921 19.0906 2.57286
336 1 44.9744 23.0147 22.3433 1.47971
396 1 46.939 19.3041 21.761 3.10973
407 1 47.6729 21.9034 21.5396 2.65542
479 2 47.7425 19.2488 19.1484 2.72469
829 2 28.8644 12.3793 -0.62151 2.78583
840 2 44.7817 19.3608 21.6417 3.42902
851 2 45.6859 22.4918 19.8283 2.37041
408 1 49.7647 23.5525 22.1221 3.45358
491 2 21.0468 22.4791 18.7129 3.41821
59 1 24.5611 27.4095 21.295 4.26746
492 2 23.0909 24.3785 20.4094 2.6566
503 2 23.1387 26.2916 19.0728 3.22357
60 1 13.9613 20.1499 -0.124326 3.78098
564 2 28.0417 24.0305 20.5901 2.43209
575 2 28.6031 27.7706 18.812 2.62822
131 1 30.5866 26.6995 21.5637 3.91758
132 1 33.6658 26.8706 22.2668 3.08328
636 2 34.8161 24.4715 18.5905 2.03156
647 2 34.6353 28.0064 19.4697 1.95227
203 1 35.6899 25.1222 21.1298 3.56921
204 1 37.7895 25.2735 22.8933 4.02103
708 2 37.696 23.7883 18.9687 3.06379
719 2 37.8643 26.6021 19.9873 2.24361
275 1 40.2512 26.1936 20.6292 3.05073
276 1 41.7811 27.8365 21.5489 3.28302
769 2 26.4854 14.6345 0.103677 2.12357
780 2 42.4726 24.5668 21.6392 2.75755
791 2 42.7588 25.4753 18.7127 2.14348
347 1 44.6378 24.8372 20.6148 3.47439
348 1 47.0535 26.432 22.8846 3.59834
841 2 34.1871 16.7208 0.796409 2.82378
852 2 47.6803 24.348 20.1917 3.49807
863 2 48.2614 27.4818 20.378 2.68692
419 1 49.4831 25.5945 20.9819 1.3857
420 1 51.181 27.1182 22.319 1.21687
504 2 25.2053 29.8745 19.151 3.07397
71 1 27.7217 29.8785 20.6189 1.20645
72 1 29.7641 31.5663 22.0383 3.03897
143 1 33.9725 29.4786 21.5836 2.95801
576 2 31.5119 29.1776 19.9578 2.1472
144 1 21.2455 22.238 -0.498106 3.58348
215 1 22.5989 6.77788 21.0992 1.77262
648 2 36.8355 29.181 20.9827 2.46334
216 1 41.6471 31.7233 22.2811 2.33075
287 1 44.0357 30.4436 20.6778 3.21785
720 2 40.0548 28.984 19.8629 1.92993
288 1 30.3137 24.0108 -0.503213 1.32613
359 1 46.7324 30.7668 21.0793 3.26969
781 2 30.9069 21.1686 -0.729154 2.06893
792 2 45.7806 27.186 20.0779 1.86231
360 1 50.1257 29.9298 22.2319 3.09327
431 1 53.1623 29.5774 21.9331 0.955936
853 2 48.9675 28.2238 22.4205 4.70108
864 2 50.5445 28.7 19.5855 7.52241
432 1 54.7632 31.3959 21.2253 1.434
ITEM: TIMESTEP
400
ITEM: NUMBER OF ATOMS
864
ITEM: BOX BOUNDS xy xz yz pp pp pp
-1.2695264004538813e+00 5.7845057143779492e+01 1.4860529918543456e+01
-1.1977726629068617e+00 3.3063155458507332e+01 1.4760078465124190e+01
-1.0472526280823449e+00 2.3055854573915354e+01 8.5217352750994664e+00
ITEM: ATOMS id type x y z f_grace_gamma
433 2 42.1351 7.92932 21.9908 7.02852
434 2 16.6493 9.16612 22.7927 2.6929
435 2 16.6532 25.563 2.36665 5.16279
445 2 16.7669 12.2629 22.0998 2.62618
1 1 3.94751 2.26576 1.45918 1.30465
2 1 5.95452 3.09546 0.0931663 1.34106
505 2 19.736 24.2994 -0.680737 2.15261
506 2 6.77504 -0.193623 0.753043 7.95096
507 2 21.1373 25.6027 3.01556 7.32609
517 2 22.639 11.5354 22.0302 2.26126
73 1 8.53324 1.30706 0.917952 4.38766
74 1 11.458 3.19708 0.928461 3.53492
577 2 25.0273 24.213 -0.91045 5.83039
578 2 11.6334 0.618813 -1.13447 7.14155
579 2 26.4378 25.6302 3.02375 2.6859
589 2 24.1034 9.36271 22.8094 7.51979
145 1 13.6951 0.755275 1.29732 1.14306
146 1 14.9142 3.04498 1.00471 1.60916
649 2 28.699 24.1868 0.465134 5.73195
650 2 16.3156 1.47644 -1.13346 6.35277
651 2 16.416 0.477182 2.20594 3.19363
661 2 30.3136 11.5182 21.4696 7.61632
217 1 18.5214 1.54834 0.843576 3.72164
218 1 20.7751 3.17523 2.32301 1.39302
722 2 20.698 0.215472 -0.712806 5.90055
723 2 36.2721 25.8866 3.53963 2.26513
289 1 22.7195 1.26189 0.509209 3.8745
290 1 27.6867 3.19057 2.9443 4.27333
794 2 26.2904 0.875279 -0.0169248 2.38051
795 2 24.2398 0.500639 2.46636 2.76972
361 1 28.5743 1.58255 1.22665 4.16133
362 1 31.1059 3.52509 1.85446 3.23823
13 1 5.39969 7.21161 1.8747 2.83597
446 2 3.64316 4.94518 0.205734 3.3285
447 2 4.17326 4.37583 2.86918 3.34515
457 2 17.8938 14.525 21.8183 9.04872
14 1 8.02324 7.27001 2.71041 3.01096
85 1 11.3201 5.58018 1.96921 3.53723
518 2 9.80294 6.14654 0.304599 2.26386
519 2 8.26954 3.75066 -0.00495864 2.80535
529 2 6.98753 9.34465 0.929213 7.90808
86 1 13.0946 8.53463 2.83821 1.31798
157 1 15.6473 5.64843 -0.240149 4.35518
590 2 13.69 4.15251 -0.530885 6.84052
591 2 14.3067 5.75618 1.65147 2.99549
601 2 13.2604 6.88326 0.599387 3.96545
158 1 19.8599 7.32806 0.976726 2.13084
229 1 21.3814 5.56137 1.69577 1.40644
662 2 17.0458 3.55047 -0.00597431 3.13859
663 2 17.938 3.92465 2.31603 1.61759
673 2 18.4076 5.03441 0.178375 2.17769
230 1 22.7755 7.49958 1.90869 1.21017
301 1 26.5097 5.93759 -0.480909 3.37972
734 2 23.3496 3.94139 0.7713 2.35434
735 2 24.8978 4.86395 2.31989 2.70825
302 1 27.2643 8.24222 1.86968 3.44745
806 2 28.2162 3.77774 -0.60591 2.67668
807 2 28.7883 5.25034 2.91514 3.51161
373 1 30.948 5.59389 -0.748603 4.92994
374 1 32.4455 6.58976 2.61254 3.3102
458 2 4.53791 8.74402 -0.834041 2.33856
25 1 7.77935 11.6977 1.32156 3.95221
26 1 11.6176 10.9262 1.96447 1.36843
470 2 8.12495 13.5085 -0.0433784 3.61782
471 2 37.483 13.7209 3.53127 1.96546
530 2 9.9433 9.23188 0.891145 2.19372
531 2 10.461 7.67678 3.13859 2.49494
541 2 11.5187 10.7357 -0.415845 9.92728
97 1 13.3276 9.64368 0.124442 1.3391
98 1 14.7666 14.2142 2.82175 3.19769
542 2 13.3416 12.5285 0.706482 3.28384
543 2 12.2922 12.5669 3.48864 5.19496
602 2 17.3273 7.54426 -0.819746 4.21829
603 2 15.2794 10.2343 1.55816 2.2611
613 2 15.8619 12.7452 -0.763515 6.28271
169 1 17.5988 11.6087 0.404097 3.13211
170 1 20.2117 11.9154 1.45638 2.23366
614 2 18.9603 13.6757 -0.0877368 2.75839
615 2 20.3941 14.2896 3.18037 3.70878
674 2 18.9467 9.72568 0.777545 3.25636
675 2 17.3945 10.2817 3.2613 2.1706
685 2 35.0434 19.6383 22.6138 2.89551
241 1 23.2644 10.1468 1.33814 2.78971
242 1 25.977 10.9596 1.66329 1.20707
686 2 37.5811 20.5901 22.9648 2.87246
687 2 24.1986 13.3259 0.434295 3.45318
746 2 25.5518 10.5724 -0.904564 1.86851
747 2 24.5854 8.05808 -0.183112 2.16981
313 1 28.1629 10.2174 0.531922 1.65877
758 2 27.4825 12.9987 2.07162 2.18632
759 2 30.354 14.7675 5.02525 2.09984
314 1 30.0018 11.9346 1.74472 3.14052
385 1 33.7464 10.4456 0.929423 3.42264
818 2 30.7857 9.82844 -0.0313159 2.49255
819 2 31.0068 8.99691 2.79859 2.80388
830 2 32.2791 11.9727 -0.446451 6.30348
831 2 33.0132 14.1848 4.88597 6.54889
386 1 33.752 12.6601 3.03497 3.81639
459 2 36.0196 10.5303 3.12346 1.73889
469 2 33.919 14.4187 1.00486 2.36639
37 1 9.95366 13.0324 1.59204 1.56483
482 2 40.222 18.7901 1.92662 6.89442
38 1 12.5411 14.8086 2.31081 3.06179
109 1 16.3042 14.7616 0.5558 3.51621
553 2 12.7733 16.2925 -0.64768 2.36614
554 2 15.1539 17.3954 -0.649681 2.90523
555 2 15.6711 16.369 4.15147 2.11592
110 1 18.7918 16.5774 2.24204 4.90397
181 1 21.8999 14.1571 0.657955 2.78096
625 2 32.392 24.3338 22.9042 2.70365
626 2 20.1095 16.461 0.131409 3.63006
627 2 21.2669 16.1726 3.8703 2.2311
182 1 23.6592 15.715 2.01522 3.48133
253 1 26.5985 15.2682 3.04672 4.33768
697 2 37.9259 22.9876 22.4309 7.3602
698 2 26.3775 17.9532 -0.536239 10.2054
699 2 24.3691 17.763 3.75435 2.963
254 1 29.1119 15.5602 2.37635 1.59631
325 1 30.8508 14.6488 0.989779 1.39444
326 1 31.6168 17.2858 0.721294 1.45595
770 2 44.5896 26.7479 22.142 2.009
771 2 29.5541 17.7877 2.12317 6.20671
397 1 33.0795 15.8751 3.42174 3.61794
398 1 38.4824 15.9764 2.46444 3.01681
481 2 10.9943 16.6056 1.10514 2.02602
842 2 24.1111 24.2461 22.7313 3.487
843 2 35.181 17.4 3.08174 2.26614
483 2 12.0978 16.4032 4.19909 3.52116
493 2 11.3012 20.5373 -0.97172 9.34002
49 1 13.2934 18.0153 1.56389 4.52835
50 1 15.5205 20.3125 1.98707 1.2929
61 1 16.3892 24.206 0.189766 3.11398
494 2 12.9335 23.0358 -0.985896 6.78115
495 2 41.7438 23.0722 4.89263 2.37342
565 2 16.3681 20.828 -0.947174 3.30934
121 1 17.8727 18.8122 0.215836 3.25519
122 1 20.66 19.3359 1.57149 3.70337
133 1 21.2206 23.9392 1.62324 4.08491
566 2 18.0877 21.0475 0.735232 2.97914
567 2 17.2655 22.4805 3.08423 2.5557
637 2 37.2198 27.0785 22.5613 4.42132
193 1 24.26 17.9475 0.869869 5.19951
194 1 26.48 20.8039 -0.167718 4.7491
205 1 26.5811 23.7761 0.824056 3.98588
638 2 22.6133 20.751 1.39672 2.60615
639 2 24.0328 22.3137 1.99809 2.39556
709 2 39.2058 30.7199 22.5235 2.0542
265 1 28.3278 18.6154 -0.319699 4.78727
710 2 29.1657 22.1848 -0.0859956 2.1743
711 2 28.4042 20.6052 3.00169 2.09
266 1 31.0506 19.2322 2.58828 3.93352
277 1 30.3952 23.044 2.37845 4.04351
337 1 33.6758 19.5083 0.773365 3.12247
782 2 49.6497 32.0393 22.6754 2.7704
783 2 34.2073 22.2991 1.6665 3.87902
338 1 35.9104 20.0094 0.213224 1.18491
349 1 36.1565 22.9457 0.820548 1.27982
409 1 37.494 18.0419 1.08363 3.27056
854 2 39.6937 19.9594 0.214013 3.62862
855 2 39.6358 23.5248 4.15333 1.97726
410 1 41.5427 20.9139 1.73099 3.71221
421 1 39.1867 23.0695 0.00343498 1.59929
62 1 3.91195 -0.0590811 1.64544 1.19828
134 1 23.7725 24.6535 1.78582 3.93704
206 1 29.6022 24.7897 3.59309 1.91563
278 1 34.2021 24.8693 1.17789 4.84574
350 1 38.0051 24.5756 1.11462 1.28047
422 1 43.9055 25.2118 2.18088 3.93397
3 1 6.77572 2.20903 2.98747 4.52353
436 2 20.3991 26.3662 4.95615 2.4355
437 2 19.0234 26.93 7.29996 2.73052
438 2 22.6681 27.5442 7.25502 2.46986
75 1 11.5805 3.09799 4.22747 3.9869
508 2 9.57618 3.166 1.99373 5.99972
509 2 23.9632 24.7858 9.29722 3.07784
510 2 24.7627 27.8371 8.52524 2.76345
147 1 14.2244 3.85994 3.6613 3.07539
580 2 13.1383 1.529 3.50715 7.65663
581 2 14.0643 2.32639 5.37142 2.71561
582 2 29.6449 27.8831 8.55204 2.52164
219 1 21.6243 5.0606 3.89513 2.41006
652 2 19.5542 0.864743 3.25214 2.63069
653 2 19.6509 3.15284 6.88829 2.39916
654 2 22.55 3.4979 7.84796 1.80305
291 1 25.7971 2.45837 5.42149 3.63383
724 2 22.9493 1.64401 4.93831 1.75165
725 2 38.9128 26.5985 7.22894 2.91479
726 2 25.2098 2.95255 8.09707 2.58696
796 2 28.786 1.78901 4.55338 3.76167
797 2 41.9208 27.2557 7.93949 6.22762
363 1 2.69632 1.89296 3.70923 1.2414
798 2 30.2564 1.96929 7.33975 2.32838
448 2 6.54894 4.59179 2.02484 3.13639
449 2 6.08599 5.95513 5.65002 2.72041
4 1 8.62021 3.86265 3.95962 3.91272
15 1 8.72545 6.21989 5.22323 2.83744
450 2 8.65978 7.61711 8.58529 4.54742
520 2 12.182 6.13014 4.24353 6.1726
521 2 9.4547 3.54186 6.6224 3.21686
76 1 13.7338 5.21344 6.26761 3.03471
87 1 14.1812 7.50073 4.4438 1.50574
522 2 11.2033 6.83217 7.02323 2.31108
592 2 16.7318 6.78488 3.64485 3.05315
593 2 17.2505 2.93663 5.25567 3.30429
148 1 18.8537 5.24812 4.36238 3.76079
159 1 18.2856 8.27357 4.7409 3.71998
594 2 20.816 8.94386 7.75241 2.01107
664 2 20.3425 9.84956 2.38366 3.48979
665 2 20.2722 6.27726 5.71409 3.1545
220 1 24.1126 4.4646 4.77158 3.418
231 1 23.4498 6.75133 4.17648 1.39635
666 2 22.6223 6.08637 6.74605 2.83256
736 2 26.2981 6.48595 3.90219 2.21347
737 2 25.5493 5.54438 6.57291 2.52171
292 1 28.3242 4.42492 8.24777 4.89299
303 1 28.783 7.50148 4.59057 3.70399
738 2 25.6049 9.67662 8.06169 5.07449
364 1 34.0972 3.70087 6.32343 6.06593
375 1 33.5519 6.74831 5.04884 3.35008
808 2 31.4749 4.01747 5.10486 2.1302
809 2 31.1004 6.73623 6.1557 2.10893
810 2 34.6173 6.5309 7.95531 3.03123
16 1 10.7276 8.70881 5.91349 3.29052
27 1 10.6942 11.7318 5.55968 1.70229
460 2 8.99441 10.487 2.8581 2.41745
462 2 40.0851 13.1638 7.77528 2.10393
28 1 13.1381 12.9918 5.97756 3.04916
88 1 15.5715 8.89997 5.73726 3.26997
99 1 15.4562 11.6206 4.24231 3.15864
532 2 12.8788 10.1582 4.52684 5.65314
533 2 14.2775 8.77199 8.05835 2.37532
534 2 15.6326 12.8364 7.78637 3.1228
100 1 17.8155 14.2615 7.61103 4.6255
160 1 19.7461 10.1363 5.05677 4.43937
171 1 20.5341 12.3442 4.18973 2.74168
604 2 17.7061 13.8325 2.35541 2.00122
605 2 18.5991 10.4076 7.44965 2.16936
606 2 20.8704 12.0788 6.76653 3.90656
172 1 22.8517 13.5152 6.35605 6.57902
232 1 26.4189 9.53659 3.86185 1.34207
243 1 25.6668 11.2068 6.68722 1.84037
676 2 22.866 9.79744 5.02476 1.72501
677 2 23.6889 10.0016 7.9383 3.52471
678 2 25.134 11.6821 9.4206 6.83354
244 1 28.5468 11.5216 4.80453 4.63308
748 2 29.085 9.6787 2.94344 7.03465
749 2 27.5348 9.0711 6.05147 9.64474
304 1 29.6513 9.28777 6.28361 2.88229
315 1 32.3273 11.5599 5.37476 3.8023
316 1 35.1993 13.3394 6.14628 1.48799
750 2 30.7018 11.0983 7.6434 7.01524
820 2 32.6213 10.1429 3.41248 3.62629
821 2 32.9047 8.67915 7.28478 4.22295
376 1 7.70606 8.5139 6.02204 3.1599
387 1 34.578 10.1054 5.59494 3.62193
388 1 38.0455 12.7152 6.11754 3.20615
461 2 12.7032 10.3703 7.41463 2.16248
822 2 9.84116 10.9032 7.75455 1.94671
472 2 10.9222 14.4062 4.61258 2.23716
39 1 14.3425 16.4919 6.57484 3.13184
40 1 16.3371 18.4052 5.70342 1.24234
474 2 41.3857 16.3873 8.51971 2.68297
544 2 17.4756 14.3168 5.65808 4.31071
545 2 16.7276 16.3119 8.03042 6.92452
111 1 18.6968 17.743 5.46576 3.22254
112 1 22.1846 17.3136 7.2982 4.41619
546 2 19.7392 15.6857 7.95359 2.33804
616 2 23.3419 11.7085 3.06077 2.4746
617 2 19.7921 15.0799 5.98768 2.01961
183 1 23.3259 16.0292 4.91088 3.47695
184 1 26.4155 18.4279 5.46659 3.42103
618 2 21.6194 15.7384 9.23416 2.67619
688 2 25.6647 12.5712 4.94846 2.51083
689 2 25.9502 15.866 6.24513 2.31916
255 1 28.3453 16.3859 4.27698 1.55553
690 2 26.8928 14.3248 8.87481 8.77192
256 1 31.2464 17.1905 6.56795 3.5186
327 1 34.3105 16.2919 5.77353 1.78956
760 2 31.2717 14.0042 7.07641 2.11293
761 2 28.8076 13.4556 8.50309 9.20163
762 2 32.9896 15.5235 8.22153 3.40207
328 1 35.5685 18.5706 5.91285 3.30005
399 1 39.0145 18.1801 3.56599 4.97994
832 2 35.7996 15.7808 4.21146 3.60324
833 2 37.5524 15.2951 6.44513 1.91957
834 2 39.0639 17.0772 6.9096 2.42718
400 1 41.4748 17.9442 5.99544 2.56699
473 2 12.1865 14.9607 6.87399 2.85138
51 1 15.7171 20.9814 4.76629 3.18203
484 2 13.9531 18.0792 4.3764 3.07315
486 2 44.2675 20.872 8.32251 6.87196
496 2 44.0323 23.1032 3.81411 2.12806
52 1 19.6976 20.6036 5.20483 3.03082
123 1 19.4691 21.5778 2.89157 3.07892
556 2 18.2474 19.4591 2.964 6.66397
557 2 19.6161 18.8954 8.32934 7.18421
558 2 23.6118 20.2474 8.38343 2.39574
568 2 21.3979 23.0739 4.4871 1.90987
569 2 22.6845 23.0935 6.88876 7.51727
124 1 24.1118 21.7717 5.82455 1.75363
195 1 25.1037 20.5687 3.86845 3.55777
628 2 22.322 19.3339 4.10403 2.03021
629 2 23.301 19.1158 6.52751 2.84005
630 2 27.2238 19.2858 7.69133 2.80692
640 2 27.9804 23.6963 4.58632 3.48453
641 2 28.7593 22.4595 7.0563 3.41374
196 1 27.1264 21.2643 5.44279 3.47018
700 2 26.2399 18.3953 1.73469 4.31812
701 2 28.9018 16.573 7.59685 1.943
267 1 28.9601 18.5493 4.90907 1.1837
268 1 33.7448 22.2637 6.37756 3.26127
702 2 31.5283 19.6946 6.20753 2.40196
712 2 32.3453 21.2697 3.88127 2.35535
713 2 30.1079 21.3524 4.65036 3.82444
772 2 32.7162 18.262 4.89877 3.8391
773 2 35.8557 17.1393 8.28087 2.69706
339 1 35.1319 20.6421 4.56676 1.29881
340 1 37.6827 21.6216 5.03309 3.79503
774 2 36.9835 20.895 6.95985 9.07489
784 2 37.3754 22.9236 2.89066 3.40066
785 2 35.3782 23.6219 5.85421 7.34306
844 2 37.4021 20.1399 2.92852 3.64067
845 2 37.7531 18.9439 7.30825 2.7425
411 1 40.752 20.1886 4.23145 3.82574
412 1 44.4389 22.7385 6.36406 2.74149
485 2 14.6544 19.1729 7.16828 6.21445
846 2 40.6876 19.8169 8.15131 7.07069
856 2 41.5123 24.519 0.556524 2.99152
857 2 38.9114 22.6381 8.04901 3.84416
497 2 18.4054 19.372 6.98529 5.94394
63 1 18.8541 24.2958 3.68142 2.78646
64 1 23.4846 25.0359 6.54091 4.47609
498 2 18.8669 23.2119 6.3978 2.45106
135 1 25.0798 23.6132 4.98201 1.47335
136 1 26.8673 25.7982 6.35378 5.48228
570 2 24.9816 23.0752 7.36637 7.61588
207 1 30.3575 23.7105 5.5068 3.74181
642 2 28.7324 26.2867 8.96295 3.54836
208 1 31.8805 25.4701 4.34618 4.30815
279 1 34.4998 23.1815 3.89221 3.80559
714 2 34.5023 23.8518 8.08005 6.29035
280 1 35.9131 26.1943 7.1664 4.015
351 1 37.4833 24.4626 5.73694 2.94098
786 2 37.7651 25.0884 8.94067 2.2604
352 1 40.7977 25.6431 5.00487 3.67909
423 1 43.1675 25.2935 5.81884 2.9471
858 2 43.3893 24.039 8.38025 7.05127
424 1 45.8689 25.7131 4.84801 0.889294
439 2 47.4652 29.2826 12.778 3.01035
511 2 10.0616 3.15343 10.5252 8.94645
583 2 31.3462 26.3779 10.5565 3.82113
655 2 36.2741 27.6689 10.7016 2.64186
727 2 25.527 3.61021 10.915 5.75426
799 2 31.2886 3.41773 10.3781 3.05461
5 1 35.4905 3.44369 10.3215 2.05725
6 1 12.1589 5.11903 11.4938 3.62778
7 1 11.8898 5.61479 14.1344 3.72777
440 2 7.46924 3.42544 12.1974 3.51219
451 2 10.447 5.02515 9.79974 2.39373
77 1 12.6057 3.13041 8.13977 3.5139
78 1 15.1898 5.33045 8.33384 3.86392
79 1 14.9264 4.66242 13.4496 4.02264
512 2 15.9348 3.47672 10.7923 3.71764
523 2 14.8797 7.06014 10.0471 2.79362
149 1 17.7815 5.06963 8.81242 3.96783
150 1 20.8928 4.30625 9.97957 4.26694
151 1 19.6797 5.94194 14.0536 4.72332
584 2 18.7332 4.10639 11.8815 2.43832
595 2 17.8512 6.57529 12.8519 3.14714
221 1 23.613 4.99723 10.4288 3.40321
222 1 26.5127 5.57415 8.82262 3.6174
223 1 26.4644 6.84555 12.9871 1.0924
656 2 23.7583 5.75949 14.4174 3.46936
667 2 21.8755 7.1477 10.5652 2.35945
293 1 29.0899 6.32685 10.1325 4.87796
728 2 27.1583 4.47139 11.2573 7.79358
739 2 29.0985 8.0455 12.1099 3.21853
294 1 32.3014 6.5413 9.66692 4.301
295 1 28.9208 6.16206 13.2941 3.21068
365 1 33.4787 4.05296 10.5134 5.61667
800 2 31.9479 6.71929 12.379 2.32773
811 2 34.8826 5.51108 11.1429 10.0681
366 1 7.42889 5.77838 9.94574 3.31194
367 1 36.2339 6.0582 13.6647 5.12696
17 1 11.7717 8.30601 9.34094 3.82488
452 2 11.7755 7.85795 13.1009 2.75003
463 2 10.4314 10.114 10.55 2.3768
18 1 13.2182 10.2053 10.1034 4.90603
19 1 12.9653 9.94555 12.7454 3.54193
29 1 14.5626 14.8181 8.42278 4.23695
89 1 16.6952 8.69016 8.62368 4.86768
464 2 40.8118 13.5593 9.66548 2.30617
524 2 16.7738 9.6889 11.2692 2.85417
535 2 13.6717 12.4308 10.4954 3.17237
90 1 18.9137 9.54053 10.5114 5.07758
91 1 18.427 9.24978 13.5754 3.69251
101 1 17.5974 12.4648 10.3205 3.89292
161 1 21.94 9.42716 10.1733 3.51469
536 2 19.6198 12.4195 14.212 2.67091
596 2 20.7356 10.2229 12.1219 2.36681
607 2 22.4789 12.9451 11.452 3.63896
162 1 23.9135 10.3924 11.2564 1.40696
163 1 23.6757 10.4397 14.1387 1.31079
173 1 22.4474 11.7079 9.2368 1.39961
233 1 25.1302 9.06352 5.72434 3.70059
608 2 23.0745 12.5141 14.634 3.25762
668 2 25.5195 7.25538 10.582 1.907
679 2 26.932 10.054 10.3105 2.10951
234 1 27.6629 12.3334 7.69723 1.97037
235 1 28.6369 10.6095 12.8559 2.92172
245 1 27.3207 12.4718 10.2164 1.77363
680 2 27.6348 12.7678 13.7741 3.52255
305 1 30.5249 8.31676 9.14602 3.27345
306 1 32.3418 10.4084 9.42976 2.88646
307 1 33.5641 10.0637 12.7772 3.76764
317 1 33.4586 12.2791 7.79331 3.29625
740 2 30.674 11.4974 11.5882 3.15798
751 2 29.7681 11.5768 9.36818 3.12572
752 2 34.7069 12.7287 11.1116 2.15837
377 1 34.807 8.38823 9.50624 3.78582
378 1 37.6477 9.25718 10.2275 2.02319
379 1 38.1835 9.99205 12.6381 1.90935
389 1 37.3076 13.3546 9.13764 4.24946
812 2 35.8588 10.5818 11.6224 2.4523
823 2 36.7782 10.3448 6.91351 3.91192
824 2 38.3837 12.9226 12.0494 2.27471
30 1 16.7465 14.6914 9.78397 2.06736
31 1 15.8919 14.3083 13.4312 3.70054
41 1 16.2709 18.495 8.90393 3.12187
476 2 13.4307 15.9739 10.5501 2.19517
102 1 20.2823 13.2654 9.4176 3.87197
103 1 20.4255 14.4178 13.4478 5.20957
113 1 20.9213 18.1546 10.1955 3.67958
547 2 16.6043 16.3779 11.3902 3.20366
548 2 21.327 17.4874 12.6606 4.07245
174 1 24.9991 13.9241 9.88406 1.65728
175 1 25.0764 13.8735 12.3106 5.13576
185 1 25.8686 17.0344 8.96093 4.09341
619 2 24.7589 16.5572 10.7394 3.4134
620 2 26.6751 15.2599 12.0948 3.4735
691 2 28.4674 14.2534 11.137 3.28808
246 1 31.6066 13.1468 10.4345 3.63658
247 1 29.863 13.6248 13.4851 2.56274
257 1 30.3109 15.7345 9.51655 3.00568
692 2 31.3712 15.5211 11.8124 2.32256
763 2 33.372 14.7756 10.5779 3.66387
318 1 36.0066 15.2739 10.0947 3.05472
319 1 35.0833 14.622 13.4139 3.79674
329 1 37.7676 18.4691 10.3419 1.57616
764 2 35.6571 16.8166 12.1008 3.92761
835 2 38.6511 15.0967 11.4789 3.69783
390 1 38.9467 15.5149 9.45373 4.04762
391 1 40.4624 13.8306 14.3259 1.68693
401 1 40.1796 18.5701 9.9553 1.49551
475 2 41.0509 17.4907 12.2052 2.0101
836 2 40.8695 17.597 14.8801 2.03287
42 1 18.785 20.0274 10.3265 3.22224
43 1 18.5591 19.0133 12.8319 3.51792
53 1 20.3753 21.2893 7.80667 4.68727
54 1 19.183 24.7598 9.23884 3.82881
55 1 21.8462 25.1839 12.0122 4.27171
488 2 47.0714 23.3148 11.6435 2.83458
559 2 21.0802 21.8607 11.9519 2.54289
114 1 23.2547 18.6429 10.9141 4.10294
115 1 24.202 18.8461 13.4016 3.45646
125 1 26.4371 21.1377 8.91609 3.19471
126 1 26.0734 23.5298 10.0452 2.78302
127 1 26.8592 22.7417 12.584 3.15791
560 2 22.7339 22.7948 10.4803 2.35838
631 2 25.0022 19.8313 10.4557 3.78671
186 1 28.5153 17.6515 10.3609 3.77146
187 1 28.1996 19.5453 12.6442 3.59628
197 1 29.8001 20.9761 8.72814 3.92344
632 2 27.827 20.8154 10.8418 7.33174
198 1 29.5173 23.4855 9.80837 4.00188
199 1 29.7099 22.3615 12.3397 1.53073
258 1 32.9845 18.1811 8.66482 3.75924
259 1 33.5527 17.8485 11.8891 4.40007
269 1 32.7149 20.9274 8.47267 3.88838
703 2 31.2421 17.7032 10.2853 3.17787
704 2 31.6167 20.2901 10.1889 6.67797
270 1 34.1753 21.6303 10.5936 4.38342
271 1 35.6723 22.4139 12.5154 1.64065
330 1 39.0185 20.7652 9.12467 1.67458
331 1 38.229 18.1029 12.7391 1.65892
341 1 36.4339 22.7234 8.14172 3.67088
775 2 33.4226 21.0178 12.7333 2.4061
776 2 38.0446 20.5593 12.8247 4.20364
342 1 38.6835 23.5045 10.9221 3.38525
343 1 40.3162 23.4902 14.0143 5.03617
402 1 43.0938 18.7606 9.36682 1.84481
403 1 43.3228 19.0931 13.917 4.57112
413 1 42.0588 21.806 8.5965 3.84707
847 2 40.4182 20.9703 11.0919 2.38583
848 2 42.7517 23.1243 12.2942 3.39263
414 1 17.1026 22.5275 8.60226 3.76308
415 1 46.0844 21.1094 14.5354 3.50969
487 2 16.4681 19.5204 11.0913 2.15061
65 1 21.3089 25.5671 8.21872 3.13908
500 2 48.8063 26.5589 10.741 3.92377
66 1 23.07 27.1854 11.0939 3.7796
67 1 22.3429 27.4032 14.4282 2.88658
137 1 26.3482 25.7922 9.06567 1.52905
571 2 25.3259 24.6506 12.3051 2.11767
572 2 28.4062 26.0879 14.054 2.02062
138 1 26.985 27.8961 10.4258 1.32747
139 1 27.3012 28.3948 12.9042 1.17379
643 2 27.2666 25.8657 11.6008 3.04236
209 1 31.7134 25.1371 7.46002 4.79498
210 1 32.4646 28.1042 9.3945 3.94597
211 1 33.34 27.201 11.8278 3.84142
644 2 30.4081 25.2795 12.5907 2.16976
715 2 31.6797 23.1652 9.78777 3.58379
281 1 33.4698 26.0564 8.97595 1.24035
282 1 38.7541 27.2967 9.69233 3.6288
283 1 38.2433 28.583 12.329 3.24546
716 2 35.3101 25.7654 12.405 7.73936
787 2 34.912 24.1379 10.4422 3.24039
353 1 41.5563 25.0576 8.67685 4.1732
354 1 43.2467 27.7679 9.85348 4.18394
355 1 42.1306 27.906 12.276 4.11667
788 2 41.4332 25.7232 11.0414 2.23084
859 2 44.4078 22.1069 10.7188 2.6528
425 1 45.8822 24.9574 7.1537 1.2326
426 1 46.7712 26.4127 9.2478 3.58433
427 1 47.0926 27.1832 14.6343 4.05672
499 2 48.1942 25.5732 12.2078 2.40928
860 2 44.4003 25.6233 10.6176 2.53457
441 2 51.9749 29.6829 15.054 3.43539
442 2 24.5049 29.5613 13.1741 2.82918
8 1 14.2269 7.27299 13.8475 3.72579
9 1 13.394 6.54277 17.2862 3.92369
513 2 27.6113 30.0991 15.6874 6.16039
514 2 15.476 6.12147 16.214 3.09133
80 1 18.4348 7.1279 15.6922 2.26024
81 1 17.6114 7.29415 18.3975 2.56879
585 2 33.0656 29.6547 13.9962 3.51278
586 2 19.9265 6.28469 17.1757 6.27279
152 1 23.5816 7.74159 12.8497 3.57157
153 1 23.1899 7.77181 15.6748 1.29373
657 2 21.2297 5.62987 16.342 8.29198
658 2 25.2141 6.6447 16.3395 6.25142
224 1 26.3527 7.93434 15.1888 1.07223
225 1 28.3015 5.95542 17.1981 3.81785
729 2 27.7497 4.88692 15.2164 5.02702
296 1 32.5448 7.15544 15.0161 3.30071
297 1 33.0381 9.51792 16.753 1.76897
730 2 44.7929 30.3004 16.3211 7.79725
801 2 47.3773 28.6848 16.6468 3.25153
368 1 38.1618 7.86548 11.8728 2.05696
369 1 37.7872 7.47564 17.9964 3.47327
802 2 33.4512 6.61059 17.3266 2.24479
453 2 39.1354 8.93024 15.3761 2.96314
10 1 15.2127 8.50109 18.4511 1.28933
20 1 15.7703 11.1856 13.8132 3.31614
21 1 15.2738 10.9131 17.0303 3.28152
454 2 12.2409 9.09095 15.9259 2.28539
525 2 16.0853 8.34551 14.7205 2.32421
22 1 17.7491 13.8964 17.7373 3.22289
82 1 21.5606 7.71938 17.7919 4.50162
92 1 21.3553 10.6514 15.5701 3.55077
93 1 20.6426 11.7153 18.4021 4.59648
526 2 18.8881 9.73752 16.6846 2.30185
537 2 18.2023 14.4137 15.0047 6.38089
597 2 21.0474 8.34907 14.6815 7.20828
94 1 23.795 12.9579 18.8867 4.89266
154 1 26.3477 8.07396 17.8367 3.69108
164 1 26.1739 11.0586 13.3222 1.58532
165 1 25.788 10.9892 18.436 4.57089
598 2 24.7028 11.3157 16.1355 2.39672
609 2 22.8264 13.4357 16.116 2.64225
669 2 25.6451 9.03251 12.4962 5.71398
166 1 27.8434 13.3152 17.8744 3.07617
670 2 28.4937 10.3242 15.6368 1.85323
681 2 30.0738 12.951 15.8678 2.2052
226 1 31.2814 6.68925 19.1167 3.64084
236 1 31.105 10.5157 14.342 3.47303
237 1 31.3902 10.8681 17.4177 3.51566
238 1 33.7327 13.5979 18.1686 2.82247
741 2 29.9787 8.05849 15.6581 2.21569
742 2 33.2256 11.8948 16.0647 3.62683
753 2 35.6527 13.617 16.1154 3.66253
298 1 35.8586 8.76011 18.7084 3.32603
308 1 35.5323 11.7749 14.0473 3.56656
309 1 35.7346 11.1628 17.9164 3.54788
310 1 37.6851 12.7619 17.7572 1.3071
813 2 34.8246 9.05172 14.8488 2.88291
814 2 38.2453 11.6423 15.8921 6.47364
825 2 38.3183 12.9228 14.6957 7.6724
370 1 40.6646 8.91583 18.4425 4.19991
380 1 40.2137 11.0866 14.2703 2.92037
381 1 40.3738 11.4432 17.1152 3.30398
382 1 44.0902 13.3658 17.4484 3.05012
465 2 13.5037 12.3986 14.8937 3.74523
466 2 16.7935 12.6035 15.3224 7.92739
32 1 18.6157 15.9674 13.3536 4.17167
33 1 18.0897 17.5342 16.2348 1.55994
34 1 21.0539 17.7449 17.9337 5.78882
538 2 20.5496 14.8048 17.2493 2.6308
549 2 20.6674 16.9297 14.6596 3.85366
104 1 22.5771 15.6695 14.4658 4.37659
105 1 23.7359 15.7018 18.3521 4.46015
106 1 26.4688 18.0658 18.4171 6.49128
610 2 25.3943 14.3908 16.8076 2.82676
621 2 26.4229 17.717 12.7091 2.29503
176 1 28.0334 15.5448 14.3352 3.95131
177 1 28.0702 15.805 17.1392 3.90743
178 1 30.8371 16.798 17.9525 4.00406
248 1 32.9584 15.44 13.7312 4.49438
249 1 32.9207 15.7228 16.6058 3.25164
682 2 30.9805 15.2887 15.0627 2.98411
693 2 29.698 17.8456 13.7269 1.90072
250 1 35.34 17.198 18.3981 4.56101
320 1 38.2394 15.602 14.1041 3.12873
321 1 37.8656 15.3001 16.742 3.59302
754 2 37.3697 14.0189 19.6676 3.49573
765 2 33.9356 18.5095 16.3936 2.63874
322 1 41.1127 17.1924 17.3114 3.34334
392 1 42.6056 14.5416 13.2949 4.1634
393 1 16.2642 15.2608 16.1188 1.0015
826 2 40.1277 14.3092 16.5646 3.97177
837 2 42.4617 15.0452 15.7029 2.33556
394 1 45.9832 18.0303 18.5457 1.351
477 2 43.9456 17.4153 11.8103 2.71195
44 1 21.9763 20.0384 14.1056 3.45487
45 1 21.8946 20.33 17.5148 3.69641
478 2 18.6753 19.5348 15.4335 7.29821
490 2 21.2365 25.3523 15.2449 2.5196
46 1 23.7042 22.2324 19.5242 1.61387
116 1 26.5031 21.0711 14.3615 1.64312
117 1 25.529 21.392 16.8033 3.99211
550 2 23.7861 20.4749 15.509 3.53017
561 2 23.3498 22.7986 12.8837 2.39036
562 2 26.878 23.1107 15.4696 3.68898
118 1 29.4634 23.3212 18.2988 4.75369
622 2 26.9087 19.2695 15.6751 2.74636
633 2 29.4702 20.7313 16.0404 2.1971
188 1 30.6308 20.3533 13.135 3.32169
189 1 31.1743 18.8925 17.6938 5.00638
190 1 31.5772 21.4248 18.3989 3.99092
634 2 31.7232 22.8133 16.8612 11.0444
694 2 32.8843 17.3734 14.4973 3.58993
705 2 31.4728 22.6546 14.9689 2.76886
260 1 36.3079 19.4609 13.4157 4.37038
261 1 36.7435 18.9468 16.1145 5.07073
262 1 37.4719 20.8728 17.9071 4.4831
706 2 33.8839 22.2379 16.5708 2.62258
766 2 39.111 18.1151 16.4353 3.91789
777 2 36.7379 21.1254 15.3439 4.06861
332 1 40.4751 20.7667 14.2427 4.4765
333 1 41.2235 20.9601 16.4497 1.49488
334 1 43.2801 21.7991 18.6711 3.42288
778 2 38.945 21.1085 16.1836 7.81047
838 2 43.8574 17.4785 16.6497 1.77512
849 2 43.8578 20.7981 15.4679 7.4205
404 1 45.8884 18.3808 15.2554 1.38469
405 1 45.098 20.1718 17.5261 1.36888
406 1 47.9276 21.8661 16.9482 3.17339
489 2 19.5403 21.8295 14.5656 2.41538
850 2 45.6721 22.3776 17.4312 3.8495
56 1 24.0061 24.727 14.8217 3.74986
57 1 22.925 24.6191 18.1274 3.22507
58 1 25.5779 26.3612 18.6753 4.65131
502 2 23.1972 26.5977 16.5756 6.26201
573 2 26.098 25.9776 16.51 2.82832
128 1 30.1569 24.3716 14.8182 3.90884
129 1 28.3265 25.3927 17.9711 4.10115
574 2 27.1105 27.5941 15.2303 10.1729
130 1 30.2732 26.4517 17.6036 4.14838
200 1 33.7619 24.1648 12.9517 4.22085
201 1 32.5945 25.4019 16.4808 3.62057
645 2 32.1632 26.0316 14.143 2.49036
646 2 32.4257 27.826 17.5569 3.61013
202 1 34.8379 26.8454 16.2991 4.28733
272 1 37.5643 24.5257 12.5997 3.40816
273 1 37.8351 23.9279 17.0769 7.69986
717 2 35.5821 24.7514 14.833 2.18446
718 2 37.5434 27.6832 17.8535 3.40208
274 1 41.1527 25.8571 17.3152 3.97342
344 1 42.1129 26.2624 14.995 6.51325
345 1 41.5842 23.2157 15.9203 1.63871
789 2 39.8305 26.6326 13.1699 2.22055
790 2 43.0851 26.7628 16.9738 8.89088
346 1 46.0796 26.3078 17.2931 3.17133
416 1 46.7642 24.7758 14.8886 5.08084
417 1 48.464 24.3667 17.7444 3.68334
861 2 45.2738 25.5358 12.517 2.95728
862 2 48.8813 26.9482 16.9104 5.44254
418 1 50.4893 26.5463 18.0926 1.5417
501 2 49.1904 28.0078 14.65 2.85513
68 1 25.0385 27.4873 13.6897 1.04581
69 1 25.7177 28.7489 16.1652 3.44449
70 1 27.565 29.626 17.8598 1.37281
140 1 29.6586 28.0897 12.5334 1.59872
141 1 29.8869 28.9091 16.7 3.25395
142 1 32.3996 30.3256 18.162 3.19688
212 1 36.5272 27.474 13.7497 4.09666
213 1 35.6468 29.0327 17.3743 4.15048
214 1 38.2632 30.791 17.1319 3.88063
284 1 40.9962 29.5698 13.8702 2.66164
285 1 40.6481 29.7005 16.627 3.26452
286 1 42.5923 29.3562 18.3798 4.12495
356 1 30.9439 4.52158 14.0354 3.03619
357 1 44.621 28.1655 16.5535 3.75815
358 1 49.3235 30.2075 19.9228 3.37017
428 1 34.2479 4.79462 14.8999 3.30408
429 1 50.0997 29.3766 17.2531 1.32494
430 1 52.3146 30.7517 17.2346 3.57334
443 2 40.3027 6.90316 17.8409 3.33428
444 2 12.2915 6.05903 19.3754 6.83984
515 2 29.9312 31.224 18.8236 2.70563
516 2 33.2093 31.9952 21.5175 2.91733
587 2 34.5706 30.886 19.5757 3.05698
588 2 23.5135 7.81506 18.8857 3.67098
659 2 41.3379 31.8407 19.9132 3.53576
660 2 27.3856 8.74144 19.79 2.42405
721 2 32.5653 7.51858 21.8574 7.36744
731 2 45.8734 29.5255 19.2776 2.71532
732 2 33.2355 8.65369 19.3742 3.17051
793 2 37.8406 7.58385 22.8618 7.65827
803 2 35.141 6.63015 19.9315 3.72335
804 2 52.6266 31.4764 20.3942 3.08071
11 1 14.9962 7.91795 21.0764 3.38804
455 2 42.5334 10.662 18.8057 3.24881
456 2 17.2212 9.50617 20.4975 2.23503
12 1 19.7541 10.0854 22.4346 3.54943
23 1 18.6228 13.1033 20.5243 4.47397
83 1 20.6123 7.67146 20.458 1.46526
527 2 19.7083 9.37348 19.3063 3.16875
528 2 21.6944 14.0371 20.2788 4.25849
84 1 21.7938 8.60805 22.4547 1.12348
95 1 23.9044 14.1491 20.9501 4.19924
155 1 25.2286 8.48493 21.2301 3.98095
599 2 21.6448 9.82246 19.8317 3.3958
600 2 26.6695 10.985 22.8925 3.51252
156 1 28.8442 9.15612 22.5666 1.37351
167 1 28.6232 12.0345 20.8335 4.1342
671 2 29.9229 10.1195 19.5427 3.44727
227 1 30.7565 8.52464 20.639 1.38549
228 1 33.6898 9.51524 22.0306 3.18108
239 1 32.7537 13.0558 20.8152 3.79892
672 2 30.6393 12.3808 19.3093 3.33607
743 2 32.9486 10.8032 19.373 6.07292
299 1 36.1553 8.89319 21.2351 1.56913
300 1 38.2299 10.3147 21.9792 1.23389
311 1 37.9252 12.2202 20.4352 4.16748
733 2 20.5788 4.07484 0.00673476 3.56885
744 2 36.0864 11.0563 22.078 8.26954
815 2 38.3749 8.9876 19.6836 5.436
371 1 40.043 8.66697 21.5985 1.39264
372 1 42.9041 9.80384 21.4203 3.55537
383 1 43.0163 12.989 20.7284 4.1471
805 2 25.6308 3.07415 -0.489633 2.18211
816 2 40.3161 10.736 20.0707 2.54893
24 1 6.95387 6.41608 -0.918429 4.29837
35 1 18.6626 17.58 20.3284 3.45327
468 2 17.6259 15.9907 19.1074 6.14481
539 2 20.2087 15.4817 20.0058 2.26615
96 1 26.3319 14.3895 22.8804 3.73128
107 1 27.5295 17.3186 22.2339 3.38676
540 2 22.1188 17.0031 21.7638 2.33642
611 2 25.8032 16.1434 20.5427 2.31921
612 2 27.6369 14.4985 19.7338 2.32776
168 1 30.8517 15.5976 21.7337 4.70146
179 1 30.0891 18.8774 22.2669 4.22726
683 2 30.5183 14.3104 18.7664 3.82353
684 2 33.2694 15.6155 19.7709 4.1589
240 1 20.8971 6.90957 -0.899241 1.66251
251 1 35.4095 16.2852 20.9533 3.49641
745 2 37.1921 14.1869 21.7886 2.611
755 2 35.0699 12.5234 20.1541 2.96586
756 2 37.9116 16.6624 18.4837 3.62346
312 1 41.654 15.6361 21.3539 3.74708
323 1 39.9111 17.0803 20.0256 3.2499
817 2 28.663 7.04497 -0.289047 2.90431
827 2 40.9517 13.8899 18.9866 2.07705
828 2 43.846 16.5833 19.9988 2.61472
384 1 16.0789 14.0194 19.7168 3.15055
395 1 45.9692 17.3313 20.8795 1.79
467 2 16.3523 12.0844 18.2804 9.1848
480 2 21.1737 20.9716 20.4151 2.09175
36 1 7.23399 10.7099 -0.672917 3.80136
47 1 23.2647 21.3333 21.7931 4.28225
48 1 25.8645 22.4579 22.5111 4.33214
551 2 23.6407 19.2068 19.6502 2.70727
552 2 25.8432 19.5128 21.8428 2.34853
563 2 24.568 23.1595 15.9631 9.78861
108 1 28.3849 20.8531 22.1953 4.86786
119 1 26.4207 22.4906 18.8886 4.06284
623 2 28.9403 16.6262 19.9559 2.26373
120 1 30.7113 22.5073 21.6521 3.7402
180 1 32.9219 18.4377 22.2633 3.47332
191 1 33.126 21.1908 21.3216 3.31073
624 2 29.8138 20.5404 19.8467 2.15552
635 2 32.0404 24.1097 20.0116 2.61944
695 2 33.7184 19.6787 19.2304 1.78226
192 1 35.5732 22.9049 21.9239 3.32855
252 1 22.0347 8.83611 -0.66958 1.69342
263 1 38.0587 21.5518 20.9254 5.14197
696 2 36.8524 19.4189 20.5937 2.32542
707 2 35.2074 21.5356 20.036 1.99618
767 2 38.6123 19.235 18.6334 3.62896
264 1 39.9418 24.2961 21.8618 3.69533
324 1 42.6181 18.7395 21.713 3.49856
335 1 42.9596 22.6013 21.2312 3.8716
757 2 40.5536 21.6043 22.3257 2.11432
768 2 39.8162 22.1425 19.6008 3.0384
779 2 41.3515 24.3102 18.7947 3.32777
839 2 41.3732 19.6445 18.2814 2.9116
336 1 45.3882 23.0598 22.5147 1.18423
396 1 47.37 19.316 21.8154 4.06204
407 1 48.1218 21.7547 22.0853 3.82566
479 2 48.4047 20.2519 18.8838 2.06924
829 2 29.5353 13.1007 -0.266743 5.95556
840 2 44.0415 20.3392 22.0696 3.21801
851 2 45.8683 22.2916 20.0708 3.29109
408 1 49.8429 23.0637 22.4144 3.74703
491 2 20.8981 22.8161 18.1859 2.11099
59 1 24.7315 27.8334 20.8683 4.38169
492 2 22.887 24.709 20.2395 3.21623
503 2 23.2713 26.7533 19.9497 7.25729
60 1 14.2118 20.8191 0.378331 1.55183
564 2 27.7694 23.8119 21.1229 2.4835
575 2 29.136 27.9769 19.6525 2.13648
131 1 30.6315 27.1473 21.7835 4.044
132 1 34.319 27.2739 22.2519 3.4163
636 2 35.6677 24.8017 18.5442 2.15383
647 2 35.6738 27.7262 19.9999 2.29522
203 1 36.1467 25.602 21.5287 3.63575
204 1 23.6471 16.385 -0.669018 1.35285
708 2 38.431 23.8541 19.8703 3.82004
719 2 37.8082 27.1271 19.7104 2.36946
275 1 40.382 26.5803 20.3235 3.48103
276 1 42.0338 28.0416 21.9921 2.17951
769 2 25.7485 13.686 0.59835 3.2966
780 2 42.6646 25.0241 21.8919 2.89027
791 2 43.5935 25.3406 19.1174 2.31903
347 1 45.0831 24.4879 20.5441 3.26164
348 1 47.3981 26.1588 22.6493 3.89369
841 2 35.207 17.2614 0.316541 3.24518
852 2 47.6667 24.2475 20.5435 3.33124
863 2 48.8523 27.691 19.7321 2.65367
419 1 49.9235 25.8196 21.1305 3.07694
420 1 51.1906 27.2047 22.4125 1.1878
504 2 54.1935 30.4194 19.1477 2.93096
71 1 27.9293 30.0604 20.8782 3.88812
72 1 29.6924 31.6016 22.6164 1.6077
143 1 34.1247 29.7155 21.9478 3.46363
576 2 31.6739 29.654 20.8353 2.14724
144 1 21.8646 21.9149 -0.458031 4.13019
215 1 23.189 6.82547 20.9948 2.47362
648 2 36.9797 30.3611 20.6214 1.98741
216 1 42.1422 31.9915 22.3386 1.56822
287 1 44.4166 31.2179 21.0836 1.66468
720 2 40.1458 29.3139 20.1328 2.88255
288 1 30.6309 24.463 -0.803686 2.75192
359 1 47.1777 31.3733 21.2829 1.93947
781 2 31.9664 20.6236 -0.748088 2.93966
792 2 46.028 26.8021 20.0997 2.18934
360 1 50.8877 29.8015 22.6015 1.17619
431 1 53.8111 29.9194 22.1791 1.30629
853 2 48.6608 27.9905 22.1937 6.11294
864 2 52.3661 28.5059 18.9786 2.76852
432 1 55.2316 31.6308 21.3262 1.17479
ITEM: TIMESTEP
425
ITEM: NUMBER OF ATOMS
864
ITEM: BOX BOUNDS xy xz yz pp pp pp
-1.4460042546050949e+00 5.8389248098332111e+01 1.5052935403934347e+01
-1.3644007010828474e+00 3.3330997395400637e+01 1.4935386080134711e+01
-1.1903906963490321e+00 2.3198992642182038e+01 8.6229491738167816e+00
ITEM: ATOMS id type x y z f_grace_gamma
433 2 42.6254 7.14949 21.6149 5.85338
434 2 16.7732 9.48265 22.8331 2.65113
435 2 1.62927 0.0138637 1.83007 6.35508
445 2 16.8462 12.2463 21.5042 2.89822
1 1 3.96231 2.39678 1.43457 1.14124
2 1 5.98176 2.86932 -0.330561 4.69028
505 2 20.0683 24.4779 -0.883106 3.2064
506 2 6.25878 0.512834 0.300784 7.64715
507 2 22.0125 25.3229 3.75358 2.17718
517 2 22.4577 12.0927 21.2901 2.64717
73 1 8.44639 1.32602 0.934645 3.17292
74 1 11.6022 2.95784 0.669633 3.6879
577 2 24.9486 24.7963 -0.513121 3.21877
578 2 11.8697 0.169645 -1.14446 7.79466
579 2 26.7583 25.1215 3.09085 3.80539
589 2 23.6271 8.73547 23.0808 3.147
145 1 13.4796 0.440223 1.13473 3.69735
146 1 14.9156 3.07689 1.17316 2.95039
649 2 29.9124 24.8251 0.952194 6.83899
650 2 31.4982 9.56132 22.873 7.95061
651 2 16.5838 0.894661 1.86588 3.56822
661 2 31.2703 11.3622 21.8796 3.1038
217 1 18.7001 1.51945 0.315945 3.80855
218 1 20.8207 2.74802 2.38799 4.84933
722 2 20.4372 0.629382 -0.422164 5.80679
723 2 37.3699 26.0005 3.17484 1.91757
289 1 22.5103 1.22216 0.0214777 1.27076
290 1 28.1614 3.06623 3.21752 5.73837
794 2 26.5687 0.441881 -0.418686 4.20481
795 2 24.8548 1.27627 2.5753 2.58423
361 1 28.5273 1.46205 0.645121 4.50996
362 1 31.4867 4.15661 1.62783 3.52829
13 1 5.03011 7.13397 2.1253 2.71796
446 2 3.66404 4.53424 0.200816 2.62505
447 2 33.5281 4.68026 4.25202 10.2726
457 2 18.2026 15.1098 22.1885 2.15231
14 1 7.50135 6.96313 2.6012 3.86734
85 1 11.4146 5.538 2.31192 3.59941
518 2 9.30191 6.67428 0.846707 2.32445
519 2 8.68471 4.25549 -1.05864 2.44406
529 2 6.50434 9.38536 1.95584 2.34885
86 1 13.0349 8.44765 2.67164 3.39793
157 1 16.0232 5.69138 -0.390867 3.64898
590 2 13.8379 4.90327 -0.852906 8.80109
591 2 13.8524 5.67073 1.62821 2.95903
601 2 13.7818 7.69756 0.0648519 3.88144
158 1 20.0407 7.48776 1.39301 5.18333
229 1 21.5152 5.58578 1.39789 1.43287
662 2 16.8512 3.48792 -0.78539 3.05997
663 2 17.1895 2.66675 2.70327 2.10034
673 2 18.5406 5.30319 0.556967 2.07897
230 1 22.9353 7.74376 1.5597 1.52121
301 1 26.7715 5.98755 -1.10077 3.95984
734 2 23.3788 3.32719 0.565577 2.45257
735 2 26.4039 4.55874 1.71543 2.39208
302 1 27.4525 8.15897 1.49714 4.52758
806 2 28.2055 3.24827 -0.68403 2.97876
807 2 29.0952 5.56411 3.11001 3.33761
373 1 30.8882 5.51942 -0.975762 5.28503
374 1 32.3164 6.27041 2.41294 3.68006
458 2 34.1193 8.76973 -0.973038 2.14861
25 1 7.50397 11.9605 1.2511 3.88456
26 1 11.6745 11.261 1.87994 1.33581
470 2 37.1818 14.5936 -0.559998 4.71347
471 2 37.7979 12.9974 3.29584 2.93266
530 2 9.17503 8.97418 0.914475 2.53869
531 2 10.1937 7.81085 3.19211 2.37956
541 2 11.1715 10.7753 -0.349117 3.01772
97 1 13.2335 9.51277 0.386078 4.28473
98 1 15.5135 14.5209 3.07552 3.61197
542 2 13.9134 13.0108 0.429374 2.61919
543 2 12.3002 12.8275 3.95561 6.61765
602 2 18.469 6.97166 -1.02032 3.13013
603 2 14.9548 11.0793 1.36829 2.5596
613 2 15.5784 12.031 -0.682665 9.14944
169 1 17.6525 12.0602 0.176191 3.55197
170 1 20.0971 12.4047 1.15636 3.73323
614 2 19.4939 14.5397 0.322916 7.59121
615 2 20.4718 14.608 2.16639 8.07234
674 2 18.2954 9.31695 0.598684 2.76861
675 2 17.3932 10.5616 4.16404 1.94784
685 2 34.7103 19.9584 22.9694 4.14275
241 1 23.2523 9.8955 0.882236 4.02072
242 1 26.3614 10.7 1.4833 4.12919
686 2 21.9671 12.1936 -0.770129 2.66221
687 2 23.7805 13.2942 0.203098 3.53128
746 2 40.0598 18.4266 22.7551 2.64487
747 2 25.1994 7.31003 -0.618398 3.29419
313 1 28.6276 10.1579 0.421562 1.65301
758 2 28.0199 13.2317 3.19294 3.91575
759 2 30.825 15.4497 5.12464 3.42115
314 1 29.8425 11.806 1.87431 4.30531
385 1 34.5479 10.6963 0.539019 4.24332
818 2 30.9932 9.35959 -0.0111701 2.50975
819 2 31.4316 8.53024 2.72922 3.03795
830 2 31.4194 11.9651 -0.199679 3.56352
831 2 33.2268 14.358 5.71749 8.81295
386 1 33.6212 12.6113 3.45679 4.32675
459 2 36.8716 10.6336 4.45284 2.42055
469 2 33.6814 15.1995 1.28036 3.68669
37 1 9.95476 12.7978 1.54206 1.61101
482 2 41.0923 19.3277 1.73454 8.67927
38 1 11.5814 14.4796 2.31617 3.06768
109 1 16.3041 15.0904 0.487607 3.75931
553 2 12.3443 16.5819 -0.17134 2.59215
554 2 15.0931 17.1342 -0.304289 3.06627
555 2 15.659 16.3236 4.67637 2.36159
110 1 18.4588 16.6197 2.58411 3.52519
181 1 21.9437 14.6358 0.744449 2.04639
625 2 32.7393 24.6565 22.59 2.4544
626 2 20.2735 16.3581 0.168326 4.23826
627 2 21.2178 17.1069 3.57729 2.29222
182 1 23.8755 15.3521 1.81767 1.55715
253 1 26.6421 15.3993 3.30459 3.17028
697 2 37.9682 22.991 22.6024 7.74878
698 2 25.8026 17.2759 -0.598917 3.59713
699 2 24.5684 17.2128 3.21032 3.80824
254 1 29.5102 15.3314 2.12817 3.94532
325 1 31.5134 14.9906 0.724709 1.51742
326 1 31.6399 17.4836 0.345681 3.91706
770 2 45.2766 27.0917 21.5579 1.95867
771 2 28.7599 18.0267 2.18661 3.96836
397 1 32.4481 16.0731 3.4973 3.41571
398 1 38.9766 16.0804 2.41822 4.20484
481 2 10.5463 16.5059 0.737281 2.78779
842 2 25.0762 25.1072 22.099 2.62323
843 2 34.3442 18.4652 3.70777 9.90967
483 2 12.011 16.2366 3.94583 2.66208
493 2 27.0578 29.0908 22.6101 4.96364
49 1 13.2565 18.5835 1.56983 3.77678
50 1 15.8509 20.2415 2.18552 3.43507
61 1 16.4203 24.9885 -0.111352 3.08897
494 2 42.0737 22.7678 -0.639014 6.38711
495 2 42.4989 23.6928 6.72502 4.50839
565 2 16.3756 21.6743 -0.557791 6.48457
121 1 17.4775 18.7968 -0.682744 3.99824
122 1 20.3278 19.0709 1.30433 4.88655
133 1 21.3978 23.8057 1.75481 3.25913
566 2 17.9266 21.717 0.520072 2.79208
567 2 16.6842 23.3277 3.07664 3.45923
637 2 23.4029 18.825 -0.823321 2.95572
193 1 24.4243 18.4017 1.10746 4.35109
194 1 26.9178 21.0517 -0.473919 3.56484
205 1 26.789 23.8865 0.805348 3.13019
638 2 23.1506 19.6944 2.35391 2.67518
639 2 24.4302 22.3441 1.90627 2.36012
709 2 39.2483 30.5561 22.654 2.93825
265 1 28.7497 18.6776 -0.226334 3.22379
710 2 29.7984 22.6325 -0.291135 2.54383
711 2 27.95 21.117 2.73209 2.47749
266 1 31.2221 19.3444 2.71054 4.03878
277 1 31.0027 23.4009 2.17235 4.35449
337 1 33.9512 19.5168 1.0762 3.45136
782 2 50.6789 32.1944 22.4034 3.13263
783 2 33.5387 22.6239 0.582559 2.39219
338 1 36.0682 19.7342 0.0197634 1.4446
349 1 36.6024 22.7036 0.92948 1.19928
409 1 37.9716 17.6722 0.944728 4.11845
854 2 39.0062 20.2389 0.213435 3.5642
855 2 39.6865 23.9956 4.2978 2.96029
410 1 42.3163 21.3891 1.58596 4.02559
421 1 39.0732 22.7103 -0.228214 1.2788
62 1 4.0198 -0.238828 1.1101 1.28477
134 1 23.9277 24.9631 1.90814 2.97699
206 1 30.0105 25.528 3.48525 4.09054
278 1 34.8073 25.1022 1.2364 3.67591
350 1 37.9236 25.1307 1.1939 3.1402
422 1 44.3911 25.475 2.27167 4.36285
3 1 6.7954 1.94549 2.53264 1.42472
436 2 5.65165 0.820818 4.82043 2.03754
437 2 19.4108 27.0325 6.89158 2.38678
438 2 6.88674 2.31141 7.18891 2.40325
75 1 11.3814 3.24743 3.91843 3.63105
508 2 9.36292 3.96791 1.54055 3.22775
509 2 23.9599 25.8207 9.38428 6.99897
510 2 24.55 27.4431 8.34807 3.88283
147 1 13.6848 3.9722 3.20179 1.24839
580 2 13.0135 1.12009 3.29719 3.65881
581 2 14.335 2.61319 5.46604 2.49314
582 2 15.2425 2.67313 8.85094 2.81247
219 1 21.596 4.79467 3.77582 1.80852
652 2 19.3454 0.628456 3.8523 2.12234
653 2 20.4253 3.23459 6.58888 2.60649
654 2 22.3173 3.70296 7.49775 2.45832
291 1 26.037 2.07601 5.63175 3.60525
724 2 22.8592 1.81941 5.40164 2.38697
725 2 39.2664 26.2753 7.26265 3.37475
726 2 25.5143 3.20356 7.91998 2.71504
796 2 29.726 1.07806 3.93169 9.4885
797 2 42.0858 27.1879 8.10133 2.95928
363 1 2.79004 1.36318 3.19739 1.38624
798 2 44.6441 27.1478 7.50642 3.60244
448 2 7.00499 5.29757 1.10915 3.88678
449 2 6.47318 5.46469 5.07744 8.57923
4 1 8.24867 3.65981 3.81562 4.20518
15 1 8.51408 5.85015 5.12408 3.81647
450 2 9.39857 7.45332 8.03396 1.80307
520 2 12.1336 6.27197 4.4673 6.83545
521 2 9.43301 2.51985 5.92117 2.62606
76 1 13.7399 5.05543 6.16336 1.81216
87 1 14.4074 6.81355 4.41843 3.50822
522 2 11.6181 6.20725 6.20511 2.39622
592 2 16.6476 6.4125 4.21213 3.14018
593 2 17.8745 2.18703 4.77154 4.00902
148 1 19.112 5.22435 4.00654 3.90004
159 1 18.7952 8.29081 4.64967 3.59262
594 2 21.9456 9.95194 7.99115 3.0834
664 2 20.273 9.94003 2.45867 2.77254
665 2 20.0121 6.9757 6.35756 2.81961
220 1 24.1069 3.74211 4.46433 3.1385
231 1 23.674 6.57239 3.83907 3.53526
666 2 22.8494 5.85249 6.1555 2.8414
736 2 26.1567 6.07613 4.29493 2.44563
737 2 25.8354 5.91572 6.36348 2.45526
292 1 28.8682 3.97402 8.7444 4.74673
303 1 29.3952 7.44508 4.00731 3.74318
738 2 25.6999 8.52261 8.89831 2.70922
364 1 4.6571 3.7369 5.88651 4.80045
375 1 34.0193 6.77006 4.86008 4.05193
808 2 31.8829 3.58928 4.5982 3.25331
809 2 30.3903 6.94442 6.07616 4.5055
810 2 6.2392 5.61853 7.70518 2.51681
16 1 10.6197 9.07172 6.07436 2.82849
27 1 11.2731 11.4183 5.70091 1.70414
460 2 9.68057 10.935 2.97158 3.47721
462 2 40.3782 13.2378 7.61062 2.30406
28 1 12.8232 13.3442 6.1184 4.28903
88 1 15.5714 9.03574 5.36989 3.69991
99 1 15.2287 11.8288 4.06117 3.15777
532 2 12.6566 10.5094 4.25372 5.94831
533 2 14.3005 8.10768 8.63742 2.57586
534 2 16.1487 11.5723 7.80593 2.41565
100 1 17.7363 14.1982 7.65432 3.82239
160 1 19.6356 10.4926 5.23382 4.53138
171 1 20.6712 12.3976 4.02472 3.52159
604 2 18.3468 14.0725 2.377 3.3845
605 2 19.234 10.4022 7.68742 2.44421
606 2 21.1449 11.8486 7.4483 3.85525
172 1 22.8874 13.5908 6.39499 3.50611
232 1 26.7649 10.3095 3.88445 1.91443
243 1 25.5165 11.0681 6.57308 1.823
676 2 22.3805 9.767 4.50311 2.49603
677 2 23.6783 9.59327 8.6081 4.17578
678 2 24.9416 11.7238 9.66538 6.82019
244 1 28.9541 11.2245 4.49717 4.20538
748 2 29.0748 9.30878 2.64665 8.78695
749 2 27.3994 8.69521 6.00963 4.62568
304 1 29.8399 9.31246 6.58841 3.44263
315 1 32.8397 11.4317 5.32252 2.04698
316 1 35.0571 13.2259 5.9472 1.96646
750 2 31.4204 11.3055 7.0214 8.9919
820 2 33.7847 10.1303 2.95342 2.64363
821 2 33.4025 8.45261 7.38742 2.69839
376 1 7.94947 8.21866 5.69343 3.90479
387 1 34.9726 10.0734 5.81556 3.83137
388 1 38.23 12.3589 6.22219 4.47518
461 2 13.8887 10.6318 7.27747 2.09167
822 2 10.1539 9.93869 8.29258 2.31989
472 2 39.5415 14.2193 5.60288 3.41056
39 1 14.6531 16.7743 6.66252 3.94629
40 1 16.2165 18.7993 5.60252 3.4778
474 2 41.6983 17.332 8.22348 6.06216
544 2 17.0676 13.8823 4.54469 2.42887
545 2 17.3665 16.74 8.59544 2.67745
111 1 18.75 17.9738 4.81473 2.93988
112 1 22.6548 17.0113 7.71667 5.10662
546 2 19.6171 15.5444 8.08354 2.01515
616 2 24.2651 11.7339 3.69597 2.52762
617 2 19.5493 15.1596 4.9795 2.2143
183 1 23.5211 15.5979 5.27075 3.95705
184 1 26.69 18.7624 4.86148 1.35857
618 2 21.7103 15.3894 9.32565 2.43369
688 2 24.8658 13.5907 5.26439 3.08501
689 2 26.9257 16.0355 6.34388 2.03337
255 1 28.3956 16.2668 4.56689 1.52014
690 2 27.2447 14.2189 9.13023 2.50065
256 1 31.4743 17.6475 6.30373 1.41349
327 1 33.9666 16.6368 6.12367 1.65823
760 2 30.909 13.5733 7.58283 2.82671
761 2 30.0925 13.9457 9.08916 10.3096
762 2 33.8795 15.9938 8.43544 2.91899
328 1 35.4584 18.5291 5.96377 4.3221
399 1 39.2921 18.6222 3.80696 4.85169
832 2 36.3873 15.8632 3.81235 3.36153
833 2 37.9832 15.8255 6.43493 2.25513
834 2 39.8733 17.6098 6.48104 2.42519
400 1 41.8936 18.1867 5.93105 3.9056
473 2 12.1689 15.2066 7.52624 2.9131
51 1 16.0309 21.0817 4.63481 3.56164
484 2 14.1213 18.722 3.92443 3.51085
486 2 44.9085 21.5291 8.18863 6.80291
496 2 43.8557 22.9938 3.76615 2.37217
52 1 20.2927 20.4373 4.94037 2.86958
123 1 19.6875 22.0042 2.66956 3.15298
556 2 17.8275 19.5417 2.68216 4.55309
557 2 19.95 18.1096 8.03193 2.2176
558 2 24.7241 20.8751 8.67841 1.909
568 2 21.5837 22.7107 4.38445 3.63212
569 2 22.4886 22.7345 8.06195 3.18455
124 1 24.1451 21.6436 5.94019 3.62269
195 1 25.2199 20.2702 3.71112 3.78855
628 2 22.453 20.2276 4.72813 2.77133
629 2 23.2748 19.9002 6.67951 3.17366
630 2 28.0053 19.33 7.66193 7.56987
640 2 27.7822 23.239 4.72016 2.31708
641 2 28.9212 22.287 6.39091 2.5751
196 1 26.691 21.1048 5.83274 1.23618
700 2 27.0917 18.7331 1.81091 2.72174
701 2 29.46 15.8556 6.81495 2.52872
267 1 29.0677 18.8838 5.30104 1.14819
268 1 33.7608 22.4173 6.67661 1.24726
702 2 32.4414 20.6846 6.09861 6.31495
712 2 32.9133 21.9253 4.0373 5.75038
713 2 30.3033 20.8524 4.1146 2.60576
772 2 33.0681 18.516 4.58887 7.19775
773 2 36.463 17.9542 8.10596 2.63113
339 1 35.0083 20.7786 4.40597 3.41313
340 1 37.6925 21.6867 4.77814 3.49633
774 2 36.6162 20.7828 7.37657 2.7805
784 2 38.0746 23.2775 3.04653 3.10704
785 2 35.224 24.6922 5.73114 3.71376
844 2 37.745 20.6736 2.15836 2.25035
845 2 38.3437 19.4357 8.04345 3.39033
411 1 41.1034 19.9464 3.86531 2.11592
412 1 45.2216 22.9148 6.24919 1.39533
485 2 14.195 19.7938 6.93764 3.22883
846 2 41.4177 19.67 7.50981 3.75869
856 2 40.636 24.4894 0.0960431 3.36334
857 2 38.7095 22.9951 7.0635 3.7678
497 2 18.4991 19.6792 7.19971 3.31712
63 1 19.2769 24.5489 3.46945 2.43766
64 1 24.1466 25.1287 6.62234 3.02114
498 2 18.7127 23.1519 6.24411 2.51674
135 1 25.6043 23.9588 4.49857 3.78343
136 1 27.4027 26.2723 5.9847 6.52104
570 2 25.9345 23.5547 7.96918 7.13312
207 1 31.3719 23.4872 5.46883 3.34806
642 2 29.049 26.0777 9.58057 8.85698
208 1 32.4534 25.24 3.92403 1.65544
279 1 34.921 23.1373 3.5339 1.48943
714 2 33.9707 24.232 8.26712 6.17291
280 1 36.2551 26.2564 7.47538 4.36393
351 1 37.8581 24.7044 6.14408 3.33373
786 2 37.7773 25.7879 9.66163 2.75243
352 1 41.0467 25.8975 4.91955 4.73989
423 1 43.5281 25.6308 5.88272 3.96301
858 2 44.6854 23.6663 8.40052 7.66747
424 1 46.2911 25.6193 4.53995 1.02511
439 2 47.71 29.1505 12.7839 2.20484
511 2 10.0282 2.92515 9.8139 3.38796
583 2 31.1518 26.3329 9.94483 3.48475
655 2 36.2133 27.4443 10.3298 3.70082
727 2 25.2074 3.37989 11.0023 6.72898
799 2 30.4824 3.00909 10.1705 3.95314
5 1 6.1233 3.19235 9.99874 4.42129
6 1 12.6694 5.00673 11.7481 3.6557
7 1 11.8561 5.73144 15.0195 3.60698
440 2 51.2867 28.7607 12.5936 2.144
451 2 10.4925 5.11131 9.94695 2.17972
77 1 12.3148 2.84938 7.55106 4.78209
78 1 14.8605 4.87057 8.06194 3.42347
79 1 14.423 4.36553 13.6766 1.32882
512 2 16.1002 3.82691 11.0877 2.60988
523 2 15.0984 7.70574 11.2918 1.96718
149 1 17.5777 5.02664 8.96207 5.23567
150 1 21.3038 3.84171 9.84707 4.86694
151 1 19.5676 5.5188 14.2712 5.69071
584 2 19.5514 3.68894 10.985 4.6795
595 2 16.7205 6.27082 13.3443 1.81989
221 1 23.7539 5.43009 10.3359 4.82368
222 1 26.3645 5.65159 8.783 3.8214
223 1 26.7539 6.71258 12.468 1.31681
656 2 23.5262 5.47916 14.8572 2.75208
667 2 20.8526 6.96709 10.3131 3.98349
293 1 29.1516 6.32976 10.355 1.55268
728 2 27.8545 4.77077 10.8673 7.52105
739 2 29.5127 8.17275 11.7901 2.73413
294 1 32.551 6.62906 9.63248 4.39595
295 1 28.8635 6.1323 13.5944 3.45058
365 1 33.1071 3.88683 10.5799 3.27058
800 2 31.3362 6.86944 12.0625 2.29437
811 2 35.2493 6.01913 10.8501 2.92983
366 1 7.97097 5.63286 10.1442 2.70643
367 1 36.7321 6.02503 14.2734 3.93616
17 1 11.6845 7.69711 9.58398 3.66427
452 2 11.6198 8.29062 13.269 3.34483
463 2 10.7469 9.46179 11.3958 4.40274
18 1 13.0516 9.97014 9.93617 3.39079
19 1 13.4243 10.1219 12.7863 3.47749
29 1 14.474 15.0297 8.25084 3.04031
89 1 16.8101 8.19464 8.46651 5.85427
464 2 41.4815 14.2811 10.2251 3.32028
524 2 15.949 9.95578 11.6758 4.15199
535 2 14.2181 12.5361 9.16333 2.26428
90 1 18.892 9.53301 10.6417 4.18774
91 1 18.7765 9.2525 13.2731 3.54384
101 1 17.4413 12.2092 10.7274 3.5811
161 1 22.4567 9.38854 10.251 4.20976
536 2 19.6246 11.2679 15.155 3.14794
596 2 21.0454 10.598 12.6405 2.14242
607 2 23.0898 13.7029 12.1625 4.08972
162 1 23.8611 10.6998 11.9673 1.15133
163 1 23.4886 9.751 14.3363 1.23538
173 1 22.6813 12.1676 9.11986 1.80215
233 1 25.0763 8.86987 5.87885 2.84377
608 2 23.0019 12.4472 14.3413 2.02792
668 2 25.8673 7.26967 10.4937 8.66173
679 2 27.4914 9.45995 11.2376 2.43546
234 1 27.2216 12.301 7.38936 4.76654
235 1 28.7751 11.2604 12.8776 1.32538
245 1 27.5489 11.9757 10.5535 3.3691
680 2 27.057 13.0227 14.8395 2.1974
305 1 30.4778 8.13272 9.20561 3.6623
306 1 32.2402 10.6051 9.1988 1.51377
307 1 33.9152 10.1873 12.5797 4.75742
317 1 34.1354 11.8903 7.64805 1.59222
740 2 30.4554 12.0803 11.931 7.76887
751 2 29.7288 11.6353 9.29337 2.88546
752 2 35.1843 12.6813 9.85709 2.7723
377 1 34.9743 8.39818 9.70704 4.29918
378 1 37.7733 9.51509 10.2532 2.31599
379 1 38.3646 10.1431 12.7056 3.8779
389 1 37.9481 13.1846 8.8748 5.0376
812 2 35.7828 10.3574 11.392 4.1535
823 2 37.6979 10.588 6.35275 10.3435
824 2 39.0974 12.348 12.0703 2.14641
30 1 16.9145 14.8179 10.1533 3.54114
31 1 15.6091 14.0914 13.2493 5.31525
41 1 16.6725 18.9372 8.64895 3.06288
476 2 42.4442 15.6047 10.8424 2.88223
102 1 20.2035 12.8895 9.50494 3.39884
103 1 20.5842 14.9578 13.0918 6.22272
113 1 21.1315 18.7208 10.0574 3.54443
547 2 15.9346 16.7714 11.5314 2.48793
548 2 21.2238 17.0256 12.391 3.28477
174 1 24.6189 14.3296 9.79448 3.54505
175 1 25.4358 13.3659 12.2781 2.51193
185 1 26.5699 17.4496 8.71933 4.78905
619 2 25.3706 16.9046 11.2596 2.8237
620 2 26.7577 16.0265 12.1574 2.59111
691 2 29.6019 14.0201 11.1777 3.8225
246 1 32.137 12.7634 9.93354 3.974
247 1 30.2837 13.3258 13.6853 2.68583
257 1 30.8281 15.659 9.61422 4.68598
692 2 31.8788 15.9379 11.6978 3.49225
763 2 34.5588 14.9111 11.3312 3.66521
318 1 36.5254 15.1243 10.2729 3.11522
319 1 35.7248 14.3984 13.4177 3.79408
329 1 38.2713 18.7912 10.4224 1.17437
764 2 35.9806 16.7624 12.0197 3.41582
835 2 38.6498 15.2506 11.9709 1.96396
390 1 38.4428 16.1634 8.97071 3.84344
391 1 41.0499 13.8462 14.599 3.39679
401 1 40.9206 18.4841 10.0696 4.17121
475 2 40.964 18.226 12.5885 2.35928
836 2 41.7514 16.3868 14.7385 3.41308
42 1 19.1251 20.2779 10.2631 3.29801
43 1 18.8918 19.0332 12.7081 3.2267
53 1 20.8806 21.5699 7.69131 5.07728
54 1 19.1511 25.0456 9.03315 5.85382
55 1 21.9567 24.9076 12.007 6.53569
488 2 47.4291 23.8274 11.3591 2.98267
559 2 20.9901 22.0226 12.2108 2.68762
114 1 23.4556 18.64 11.2404 4.1662
115 1 24.6639 19.2421 13.2881 3.65527
125 1 27.3481 21.4648 8.62888 1.92409
126 1 26.353 23.4726 10.1834 1.3436
127 1 27.2663 22.8882 12.3313 4.40932
560 2 22.4052 22.1989 10.378 2.56923
631 2 25.8215 20.2056 10.3942 2.54275
186 1 28.4063 17.4447 10.7473 3.45396
187 1 28.6459 19.7932 12.5805 1.63758
197 1 29.6331 21.1123 8.75259 4.06601
632 2 27.7318 20.1089 10.4574 6.05921
198 1 29.167 24.0426 9.6782 4.38512
199 1 29.6465 22.349 12.2671 3.54471
258 1 32.8818 18.2376 8.24978 3.5842
259 1 33.8942 18.1065 11.8553 4.00344
269 1 33.1897 20.7616 8.29726 3.53838
703 2 31.1414 18.0666 10.0671 2.42815
704 2 32.0791 19.8131 10.548 2.73146
270 1 34.561 20.8874 10.9324 4.94805
271 1 36.1525 22.677 12.6915 1.46565
330 1 39.4958 21.1785 9.08311 2.99475
331 1 38.7293 18.0444 12.856 3.34414
341 1 36.2092 23.1612 8.12792 3.10936
775 2 34.593 20.9216 13.9567 2.45971
776 2 39.1807 21.2354 12.6294 3.43399
342 1 38.8919 23.5548 10.8806 2.96485
343 1 40.3996 23.4733 13.9372 3.94243
402 1 43.297 18.9903 9.166 3.14576
403 1 43.8335 18.9455 13.88 5.0673
413 1 42.107 22.3247 8.41022 3.50077
847 2 41.2896 21.4357 11.4966 2.04651
848 2 43.0514 23.6747 12.9262 2.57064
414 1 16.9371 22.3312 8.46433 3.53419
415 1 46.8517 20.5657 14.6896 3.0341
487 2 15.875 19.7627 10.8707 2.33731
65 1 21.8727 25.5542 7.71583 3.31497
500 2 48.5082 27.7483 10.1435 3.06462
66 1 23.327 27.3421 10.5958 3.78008
67 1 22.4362 27.5778 14.7583 3.49892
137 1 26.5373 25.8426 9.14173 1.27407
571 2 24.9444 24.8481 12.1679 1.81804
572 2 29.4222 26.6854 14.4967 2.86727
138 1 27.1696 27.959 10.1684 1.34233
139 1 27.1521 28.5832 12.8202 1.27648
643 2 27.6147 25.6651 11.4839 3.39483
209 1 32.3842 25.0169 7.01007 4.41958
210 1 17.6093 2.68392 9.22598 4.5144
211 1 33.5458 27.5321 11.3464 3.81099
644 2 30.4223 24.8233 11.6944 2.67681
715 2 32.3734 23.099 9.57865 2.25158
281 1 33.3421 26.1824 8.99342 1.44051
282 1 39.5151 27.6051 9.66958 3.4866
283 1 38.7125 28.5642 12.1298 4.1551
716 2 35.7355 26.1439 12.1031 7.2717
787 2 35.3226 24.4343 10.0766 3.37581
353 1 42.1358 24.7549 8.8386 4.30015
354 1 43.7384 28.2109 10.0404 1.98019
355 1 42.1084 28.212 12.0616 3.52477
788 2 41.0996 26.3952 10.7504 3.35242
859 2 44.8706 22.0517 11.0842 2.75639
425 1 46.2294 24.7875 6.90523 1.51069
426 1 46.4175 26.5611 9.03979 3.56378
427 1 47.6333 27.3699 15.1764 4.06779
499 2 48.457 26.0429 13.2156 2.3386
860 2 44.1287 25.5953 10.0458 2.34653
441 2 52.1308 30.0728 15.0382 7.7786
442 2 9.5513 4.55079 12.1803 3.07763
8 1 14.1211 7.27424 13.8169 3.47411
9 1 13.0238 6.51886 17.3553 2.97018
513 2 28.8569 30.6669 15.8286 6.32886
514 2 15.6425 5.638 16.0689 3.30121
80 1 18.1753 6.89508 16.4302 4.16002
81 1 17.4691 7.37272 18.812 1.4274
585 2 33.0524 29.3338 14.3438 2.40474
586 2 19.3509 6.40573 18.2338 6.82433
152 1 23.7739 7.7776 12.6913 4.36388
153 1 23.1149 8.00944 15.7439 1.24612
657 2 20.999 5.31574 16.4324 4.4889
658 2 25.5033 6.06063 17.7934 9.08435
224 1 26.1014 8.1285 14.9753 5.17883
225 1 28.2074 5.5271 17.6064 4.94808
729 2 28.4559 4.91014 15.2351 7.36283
296 1 32.399 6.99785 15.3948 3.51828
297 1 33.3954 9.73501 16.2223 4.28023
730 2 30.717 5.18989 16.7973 2.87133
801 2 47.4136 29.138 17.2207 3.2485
368 1 8.87332 7.38194 11.7068 4.17187
369 1 37.8751 7.66724 18.0167 3.56553
802 2 33.3371 6.93353 18.0521 2.97651
453 2 38.8157 9.20339 15.4053 2.68213
10 1 15.1681 8.12582 18.6692 4.03268
20 1 15.5966 11.016 13.6099 3.23146
21 1 14.9124 10.784 16.4289 3.80709
454 2 12.1456 9.15753 16.2915 3.63973
525 2 16.975 7.87199 14.777 2.87151
22 1 17.4195 13.923 17.6077 3.78274
82 1 21.571 7.49584 17.9462 1.16919
92 1 21.591 10.4243 16.2153 3.48864
93 1 20.8983 12.483 18.5071 3.69619
526 2 19.6153 8.92277 17.6361 2.62094
537 2 19.2974 14.21 15.1883 2.2521
597 2 20.3188 8.81907 14.5739 3.42442
94 1 24.0682 12.4987 19.1956 4.08163
154 1 26.7774 7.79281 18.061 4.16624
164 1 26.3069 10.9537 13.0633 1.05829
165 1 26.2504 10.9041 18.9388 4.47298
598 2 25.6601 11.6479 16.4113 2.23087
609 2 22.1159 13.5318 16.805 2.45942
669 2 26.5747 8.73729 13.0776 7.10507
166 1 27.7909 13.3241 17.3334 3.69437
670 2 28.1632 9.99835 15.8954 2.3682
681 2 30.8718 12.7913 16.2123 2.19691
226 1 31.5559 6.15916 19.5055 1.90096
236 1 31.5895 10.1833 14.3361 3.93399
237 1 31.2214 10.6478 17.2966 4.43624
238 1 33.7751 13.3787 18.659 3.6616
741 2 30.443 8.13729 14.9131 3.26635
742 2 33.1238 12.2728 15.2061 2.40545
753 2 36.556 13.0783 16.427 3.45769
298 1 36.0513 9.08782 18.9369 1.43611
308 1 36.0031 12.0064 14.2863 4.60568
309 1 35.6419 11.0845 18.01 3.95037
310 1 38.4529 12.7905 17.8149 3.46324
813 2 35.1632 8.03509 14.7357 2.69939
814 2 38.4034 10.3263 16.8755 3.98433
825 2 38.515 12.7545 14.4573 3.57641
370 1 40.8468 8.77636 18.6423 4.34667
380 1 40.967 10.7488 14.299 2.84072
381 1 40.8203 11.1134 16.9388 3.43852
382 1 44.4303 13.7537 17.8051 4.01017
465 2 13.9437 12.2289 15.3414 7.16675
466 2 17.454 11.7884 16.3013 2.80666
32 1 18.572 16.2654 13.1711 3.32504
33 1 18.581 17.7659 16.7348 1.46622
34 1 21.3994 17.801 17.5422 4.81137
538 2 20.7221 15.2901 17.2794 2.39644
549 2 20.1064 17.6989 14.9562 4.33138
104 1 22.5655 15.1017 14.3122 5.77024
105 1 24.2133 15.8933 18.8238 3.80431
106 1 26.4817 18.0554 18.551 3.96495
610 2 25.2649 14.746 16.4583 2.65148
621 2 26.978 18.4237 12.6592 7.04059
176 1 28.308 15.3603 13.9235 3.74889
177 1 28.3684 15.9695 17.1053 3.86534
178 1 31.005 16.87 17.8273 3.25019
248 1 33.1868 15.3746 13.5655 4.13031
249 1 33.195 15.9054 16.9751 3.22971
682 2 30.7535 15.6397 14.8391 3.45214
693 2 30.157 16.9262 13.1872 2.17516
250 1 35.3021 16.9455 18.4931 4.09107
320 1 38.648 15.6565 14.3909 1.40835
321 1 37.6889 15.2265 16.5734 2.03499
754 2 38.2846 15.2728 18.8101 3.84787
765 2 33.2283 19.0614 17.815 12.7554
322 1 41.2538 16.7616 17.1715 3.38357
392 1 42.6845 14.9988 13.1439 4.30551
393 1 16.0102 15.3568 16.07 1.23225
826 2 39.8091 14.7787 16.4875 7.50005
837 2 43.7184 14.8313 16.0149 3.34866
394 1 46.6253 18.1666 18.8217 1.50454
477 2 43.6313 17.949 11.8949 2.64799
44 1 21.9971 20.7933 14.1127 4.38142
45 1 22.1901 20.3674 17.4247 3.68926
478 2 19.2999 19.9841 15.0597 6.87592
490 2 50.4122 25.7951 15.0586 2.03265
46 1 23.8138 22.4796 19.6535 3.91751
116 1 26.7094 21.083 14.4384 4.473
117 1 25.5282 21.4452 16.8268 3.66354
550 2 23.7889 20.5427 15.592 7.75168
561 2 24.5698 22.9923 13.2261 2.42725
562 2 27.3488 23.4521 15.9867 2.7847
118 1 29.6548 23.933 18.6454 4.6314
622 2 26.2865 18.5035 15.8839 2.8402
633 2 29.9227 20.8759 16.2934 2.99996
188 1 30.8287 20.1638 13.6538 3.88977
189 1 31.2815 19.4161 17.9231 6.04924
190 1 31.6359 21.2561 18.81 2.34188
634 2 31.5978 23.2767 17.0076 2.60528
694 2 33.1139 17.7746 15.0932 2.46153
705 2 31.8192 22.2631 14.3953 2.67683
260 1 36.5849 19.9327 13.0673 3.20192
261 1 37.1936 18.1554 15.7778 5.66904
262 1 37.5043 21.5401 18.0899 4.04095
706 2 34.3003 21.6863 16.4014 3.34266
766 2 38.9803 17.0026 16.4276 8.69042
777 2 36.5087 22.259 15.055 1.7654
332 1 40.7749 21.0553 14.1861 3.74768
333 1 41.7306 21.0699 16.748 3.59147
334 1 43.6169 21.9837 18.894 4.28584
778 2 39.0789 21.0212 15.9186 2.45666
838 2 43.6785 17.2447 16.9127 2.18876
849 2 44.6773 21.7604 15.5785 2.44835
404 1 16.3303 17.8931 14.9696 1.63364
405 1 45.7397 19.8927 17.7147 4.39199
406 1 48.2643 21.8422 16.6322 3.35123
489 2 19.9821 22.0009 14.3817 3.01088
850 2 45.6348 23.3029 18.1738 3.84995
56 1 24.0051 25.1916 14.5932 3.45375
57 1 22.9359 24.7291 18.5271 3.59543
58 1 25.9072 26.4401 19.0338 3.85153
502 2 23.5138 26.3581 17.0386 3.41355
573 2 26.5478 25.5135 15.8553 2.28443
128 1 30.4969 24.9362 15.3111 4.16418
129 1 28.3416 26.0466 17.837 1.71113
574 2 28.3507 27.5378 16.056 3.39661
130 1 30.8349 26.7516 17.7992 3.39991
200 1 33.9202 24.1356 12.5895 4.181
201 1 32.6325 25.6242 16.3744 4.28166
645 2 32.8326 27.2713 13.9574 2.27205
646 2 32.8982 27.9815 17.716 3.52993
202 1 34.8034 27.5188 15.6861 3.4291
272 1 37.6247 24.737 12.7222 1.3836
273 1 38.1063 24.1076 17.1852 5.24681
717 2 35.6015 25.4211 14.9528 2.51411
718 2 37.7747 27.7101 16.8654 3.30713
274 1 41.4069 25.4259 17.4059 3.1744
344 1 42.2348 26.9467 15.1336 5.57205
345 1 42.1775 23.564 15.8682 3.9173
789 2 39.8529 26.8339 13.7069 2.47277
790 2 43.817 26.9516 17.8972 2.75264
346 1 46.6788 26.1561 17.2704 1.71841
416 1 46.6543 24.9139 15.1336 4.98422
417 1 48.71 24.7965 18.3955 2.83431
861 2 46.0939 25.1454 12.4448 3.19577
862 2 48.7925 26.7306 16.731 7.59083
418 1 51.3225 27.0874 18.3902 3.18125
501 2 50.0519 28.7037 14.0567 1.97737
68 1 25.0151 27.6463 13.7245 3.37519
69 1 25.4274 29.2734 16.5168 3.53052
70 1 27.739 29.8789 18.116 1.38966
140 1 29.4969 28.0209 12.0817 3.41486
141 1 30.1173 29.157 16.7432 3.65773
142 1 32.5978 30.5308 18.0633 4.0286
212 1 36.753 27.392 13.7131 4.62159
213 1 35.715 29.2041 17.7103 4.02247
214 1 38.3647 31.026 17.2947 3.70204
284 1 41.6856 29.9271 13.8449 3.17474
285 1 41.2023 30.4841 16.7714 2.20686
286 1 42.5543 29.2864 18.3291 5.54913
356 1 31.2222 4.95739 14.0979 4.22559
357 1 45.1154 28.6074 16.2744 4.28066
358 1 49.9894 30.5126 20.6675 3.52453
428 1 34.2099 5.44845 15.3763 4.39088
429 1 50.2677 29.6809 17.1288 3.39616
430 1 37.5548 5.39574 17.0175 3.67647
443 2 10.6824 6.17157 16.5934 4.16958
444 2 12.1605 6.47881 19.6509 3.40964
515 2 29.9603 30.8821 18.6335 3.12916
516 2 32.3117 32.3791 22.0074 3.15252
587 2 34.6566 30.8237 19.288 3.33663
588 2 24.2824 7.6632 18.4225 3.73754
659 2 26.2382 6.38888 20.2023 8.49684
660 2 27.1424 9.68441 20.1686 7.76475
721 2 32.9756 7.50831 22.0779 8.35934
731 2 47.0091 29.5528 19.9611 3.47401
732 2 33.2727 8.26078 19.8461 6.81036
793 2 38.1207 7.57947 22.8028 7.19892
803 2 34.922 7.07095 19.8985 2.79214
804 2 52.0759 31.4961 20.9653 10.5449
11 1 14.9606 7.36012 21.147 3.35939
455 2 43.0368 11.3275 18.735 2.80747
456 2 17.9311 8.69518 20.4963 3.57407
12 1 19.6633 9.71056 22.0907 4.07149
23 1 19.0072 13.0075 20.1691 4.3661
83 1 20.5685 7.31521 20.328 1.16773
527 2 19.2994 10.269 19.3492 2.42086
528 2 21.5222 13.6594 20.1186 3.75375
84 1 21.6075 8.44557 22.5236 1.55714
95 1 23.9581 14.7889 21.2172 2.96485
155 1 25.4207 8.1743 21.0783 1.97901
599 2 21.8836 9.50941 19.9188 2.41682
600 2 27.5778 11.2377 22.8417 2.47338
156 1 29.041 8.82028 22.6911 1.15802
167 1 28.5904 11.8014 20.7465 3.68211
671 2 29.972 10.1554 19.0472 2.88879
227 1 30.9451 8.14623 20.7786 1.69957
228 1 33.8992 9.46447 21.9965 1.46859
239 1 32.9818 12.8235 20.9035 4.22505
672 2 30.9232 12.1989 19.2182 2.54817
743 2 32.3408 10.4991 20.2248 6.69385
299 1 36.3419 8.76768 21.5708 1.13204
300 1 38.498 9.968 22.2211 1.19257
311 1 38.0151 11.2405 20.342 4.30217
733 2 20.0681 3.60186 -0.551122 3.61643
744 2 36.3346 11.6929 22.7359 9.06592
815 2 38.716 8.60095 20.3021 6.84536
371 1 40.5417 8.71227 22.1156 1.61165
372 1 42.8717 10.478 21.3067 4.35861
383 1 43.3069 12.8354 21.0052 1.88535
805 2 26.0295 2.39331 -0.141802 2.28308
816 2 40.4468 10.911 21.191 8.47275
24 1 7.11523 6.34965 -1.01022 4.85179
35 1 18.6878 18.1461 19.761 1.93907
468 2 17.7555 15.8684 18.6816 7.76453
539 2 19.3252 16.0359 20.902 3.09983
96 1 27.0515 14.4239 23.0453 4.86165
107 1 28.0535 17.2652 22.0922 3.28484
540 2 22.1277 17.2024 22.1386 2.55624
611 2 26.3942 16.8131 20.4347 2.9752
612 2 26.5195 14.2153 20.1791 2.1141
168 1 30.9359 16.2489 21.5946 3.96651
179 1 30.6509 19.0253 22.3206 1.79149
683 2 30.4877 14.4064 18.2143 2.64452
684 2 33.1169 16.3115 19.5976 4.52312
240 1 21.2665 6.40202 -1.0522 1.66057
251 1 35.6944 16.4034 21.2236 4.91884
745 2 37.5255 13.357 21.8332 2.84778
755 2 35.3822 11.3018 20.2134 6.34808
756 2 37.6491 17.1585 18.625 3.44106
312 1 42.1039 15.8097 21.3169 4.13831
323 1 40.1601 16.9554 19.7787 3.34947
817 2 29.0205 7.1501 -0.656366 2.90405
827 2 41.2094 13.8654 19.2806 2.12916
828 2 44.3135 15.8924 19.4586 4.4595
384 1 16.1261 14.0774 19.6423 1.73788
395 1 45.9207 17.1561 21.4213 4.73557
467 2 17.4678 11.4417 19.1329 2.93383
480 2 21.7165 21.7606 19.8908 3.05583
36 1 6.87367 10.9014 -1.00085 3.14867
47 1 23.4323 21.5283 22.0228 3.95167
48 1 25.9769 22.3173 22.8499 4.5346
551 2 23.7269 19.481 19.5607 2.95408
552 2 25.889 19.7689 21.825 2.35545
563 2 23.838 22.381 15.1363 4.49176
108 1 28.7416 21.4388 22.1787 3.91004
119 1 26.2337 23.1733 18.4314 3.50651
623 2 28.9713 16.3591 20.3235 2.93969
120 1 31.2046 22.2313 21.6257 1.72753
180 1 32.848 18.3679 22.346 3.7734
191 1 33.1379 21.3004 21.8033 1.62905
624 2 29.1125 19.9591 19.5679 2.932
635 2 32.67 24.1406 19.4872 2.82466
695 2 34.3582 19.5455 18.9718 3.14426
192 1 35.6524 23.5204 22.0653 4.17291
252 1 22.2077 8.64398 -0.537758 1.82058
263 1 38.5879 21.4586 20.7481 4.88549
696 2 37.4239 18.7708 20.3768 2.50966
707 2 34.8099 21.4929 19.8011 2.30975
767 2 39.1452 19.0553 18.9034 2.04878
264 1 40.7605 24.6442 21.7541 4.12442
324 1 42.6941 18.5877 21.9326 5.92171
335 1 43.2125 23.3861 21.439 5.40668
757 2 40.999 22.3855 21.4387 4.82316
768 2 40.5463 21.6503 19.0532 2.21369
779 2 41.9338 23.8259 20.0695 9.95391
839 2 41.8101 19.0597 18.5482 2.09696
336 1 46.0683 23.1974 22.7056 1.12106
396 1 47.8533 19.316 21.8586 1.24179
407 1 48.2362 21.4918 22.4607 3.05772
479 2 48.9807 20.9531 18.8479 1.92984
829 2 29.0914 13.767 0.438988 3.31874
840 2 44.6982 21.573 22.2408 2.7637
851 2 46.3356 20.9415 19.9687 3.8624
408 1 50.378 22.9386 22.71 4.08601
491 2 20.8871 23.0808 17.6618 2.20887
59 1 25.2425 28.2763 20.5784 3.64437
492 2 52.1164 24.1067 21.7804 3.00461
503 2 52.0988 26.9612 20.4133 6.50605
60 1 14.2286 21.7158 0.359469 1.7303
564 2 27.6843 23.4881 20.97 2.36247
575 2 29.5105 27.9555 20.2068 4.08151
131 1 30.9066 27.6283 21.8833 4.50513
132 1 34.9221 27.5648 22.3755 3.19003
636 2 36.3716 25.2934 18.6006 2.3679
647 2 35.9581 27.7695 20.3195 2.23823
203 1 36.5529 25.7063 21.7971 2.23473
204 1 23.7136 15.9521 -0.449459 1.63554
708 2 38.3836 24.6592 20.8566 3.67993
719 2 38.241 27.0933 20.3632 2.04238
275 1 40.5867 26.8864 19.8956 4.51925
276 1 42.3102 28.4225 21.8326 4.41144
769 2 26.3473 13.7748 1.31785 2.43959
780 2 42.6902 25.8568 22.2608 3.03056
791 2 44.0214 25.5923 19.1116 2.93748
347 1 45.5548 24.1776 20.4886 1.41923
348 1 47.7328 25.7117 22.1739 2.44953
841 2 35.7028 17.1547 -0.59752 3.42574
852 2 47.9663 23.8331 20.8691 6.09544
863 2 48.9551 28.0173 18.6433 3.05079
419 1 50.1509 25.6335 21.0865 3.34777
420 1 51.751 27.3462 22.4162 1.46651
504 2 54.6276 30.5071 19.0274 2.25133
71 1 28.2194 30.1697 21.2299 4.15721
72 1 29.873 31.5862 23.0065 1.45586
143 1 34.3769 30.0176 22.4796 3.19324
576 2 31.7082 30.0089 21.4831 2.24448
144 1 22.2779 21.7209 -0.654704 5.7017
215 1 23.8066 6.72182 21.0059 3.56675
648 2 36.9633 31.3422 19.9866 3.44908
216 1 42.6455 32.3112 22.4066 1.2363
287 1 44.7921 32.1101 21.4874 1.71965
720 2 40.1012 29.5318 20.1717 2.62403
288 1 16.1262 -1.26218 -1.17698 1.72968
359 1 47.6191 31.4865 21.4568 1.81178
781 2 32.4431 20.3176 -0.802757 2.36278
792 2 46.6914 26.5313 19.7152 3.5076
360 1 51.884 30.0758 22.4317 1.58022
431 1 54.0227 30.19 22.2562 1.21359
853 2 48.5876 28.3384 21.641 2.44281
864 2 24.2159 28.5791 18.058 3.87299
432 1 55.6409 32.1111 21.5644 3.69225
ITEM: TIMESTEP
450
ITEM: NUMBER OF ATOMS
864
ITEM: BOX BOUNDS xy xz yz pp pp pp
-1.6211657021056278e+00 5.8926280521286252e+01 1.5241240537244355e+01
-1.5274777301923261e+00 3.3594282710193859e+01 1.5108951922278314e+01
-1.3321066130251300e+00 2.3340708558858136e+01 8.7231574595005128e+00
ITEM: ATOMS id type x y z f_grace_gamma
433 2 12.8029 6.62577 22.0482 7.42679
434 2 16.9173 10.2466 23.0099 2.97769
435 2 1.05392 0.321051 1.47299 7.22461
445 2 16.7459 11.9554 21.2399 2.50956
1 1 4.14211 2.72786 1.26709 3.29664
2 1 6.10584 2.73333 -0.851039 4.56981
505 2 20.0052 23.8587 -1.15193 3.55632
506 2 5.64349 0.891755 0.572487 7.81481
507 2 23.4679 25.1181 4.66148 4.23344
517 2 21.9686 11.9627 20.6752 2.53594
73 1 8.72215 1.4763 0.837914 3.66045
74 1 11.9518 2.76104 0.686204 3.77407
577 2 24.6502 24.5262 -0.279124 2.26293
578 2 11.5208 -0.391765 -0.74827 6.35878
579 2 27.5452 25.2223 2.51571 3.61033
589 2 8.60824 0.536622 -1.33441 2.63694
145 1 13.1305 0.43375 0.756431 3.89334
146 1 14.8745 3.06457 1.23867 2.90656
649 2 30.6911 25.3479 0.908777 3.02862
650 2 17.4228 0.492888 -1.07063 8.02639
651 2 16.3522 0.75118 0.774153 3.48176
661 2 30.7689 11.8951 21.5271 2.72298
217 1 18.6453 1.59528 -0.0129045 4.97148
218 1 20.8073 2.18244 2.31294 5.17543
722 2 20.5207 0.0936476 -0.657077 7.5883
723 2 38.2409 26.4326 3.71592 1.86458
289 1 22.388 1.27201 -0.0718697 1.42372
290 1 28.5117 2.86968 3.47702 4.20773
794 2 27.5303 -0.431716 -0.279433 3.22652
795 2 25.7473 2.11009 2.76632 2.62083
361 1 28.7483 1.26803 0.401533 4.67404
362 1 31.6676 4.32472 1.2386 1.82153
13 1 34.6613 7.0527 2.37026 2.05506
446 2 4.05184 4.76188 -0.250117 2.03996
447 2 33.4462 4.86817 3.85822 4.00206
457 2 47.9832 15.3093 23.1185 2.80556
14 1 7.12102 6.74724 2.77209 4.37225
85 1 11.3893 5.39906 2.39323 1.66063
518 2 9.01719 6.84526 0.78561 2.56039
519 2 24.8079 13.4125 22.8705 3.41607
529 2 6.43396 9.28612 2.96235 2.17438
86 1 12.8945 8.23428 2.46672 3.60846
157 1 16.6819 6.00769 -0.564935 4.50459
590 2 29.6854 12.9482 23.2604 2.3563
591 2 13.9828 6.14442 1.51704 2.10509
601 2 14.8426 7.05301 -0.988582 4.00005
158 1 20.0773 7.83049 1.91135 3.23728
229 1 21.674 5.27785 1.00725 1.82404
662 2 17.1933 3.13307 -0.860219 3.03925
663 2 16.6333 2.29988 2.95784 3.18848
673 2 18.7846 5.59192 1.58746 2.89692
230 1 23.135 7.72001 1.51573 3.5021
301 1 42.3221 14.2131 23.1155 3.9077
734 2 23.4507 3.59038 0.600158 2.63745
735 2 27.9271 4.53592 0.960065 1.90944
302 1 27.4096 7.7749 1.08577 4.20076
806 2 28.686 3.70343 -1.1426 8.45129
807 2 29.5991 5.0242 2.52615 2.85925
373 1 30.7528 5.38362 -1.13362 4.36918
374 1 32.2557 6.25051 2.37483 1.87041
458 2 4.34911 8.42723 -1.08958 3.0277
25 1 37.3127 12.1759 1.15188 3.54142
26 1 12.2231 11.4281 1.91318 1.45863
470 2 37.827 15.6435 0.714442 3.43415
471 2 38.0539 12.9368 3.79849 2.31073
530 2 8.08009 9.30719 0.666068 2.25636
531 2 9.81477 8.15845 3.65186 1.9018
541 2 10.144 11.1499 -0.708276 3.25776
97 1 13.0794 9.84292 0.541538 4.54803
98 1 15.9876 14.7679 2.96777 3.7949
542 2 13.704 14.2406 0.746579 1.97207
543 2 12.5584 13.277 3.66128 3.39278
602 2 19.7633 6.77443 -1.30057 4.24494
603 2 15.1373 11.6982 1.94842 2.52282
613 2 15.2389 12.0452 -0.418096 2.34448
169 1 17.8689 12.6232 0.0562572 3.64991
170 1 20.0909 12.8265 1.00745 3.25728
614 2 18.9514 15.1651 -0.313252 4.16017
615 2 20.4881 15.411 2.80701 2.07373
674 2 17.333 8.84407 0.414651 3.16199
675 2 17.5009 10.8999 4.6935 2.45102
685 2 19.7198 10.9303 -1.1493 3.26651
241 1 23.6167 10.3779 0.677597 4.24961
242 1 26.555 10.4923 1.1992 3.52828
686 2 21.462 11.8052 -0.714866 2.93534
687 2 24.4966 12.4293 0.191781 2.94892
746 2 39.5591 18.0727 22.1745 2.36453
747 2 24.7875 7.21802 -0.59807 2.12097
313 1 29.0599 10.21 -0.106598 2.73221
758 2 28.5369 13.4244 4.71018 2.60799
759 2 30.9508 15.5361 5.16732 9.63284
314 1 29.7122 11.7053 2.27811 4.55332
385 1 35.2944 11.2471 0.233568 4.16528
818 2 31.6264 8.60303 -0.189237 2.54811
819 2 32.1188 8.64599 2.86536 3.1439
830 2 30.6553 12.3058 0.245354 3.26959
831 2 32.4975 14.4135 6.416 3.04737
386 1 33.6097 12.8833 3.5767 6.69307
459 2 37.7258 10.837 4.86985 2.4244
469 2 34.6307 16.0285 1.62074 3.0883
37 1 9.62957 12.6773 1.12186 1.31273
482 2 40.5675 19.279 0.722418 1.92513
38 1 10.7079 14.3479 2.20369 4.27938
109 1 16.3984 15.2209 0.481761 3.78501
553 2 12.7011 16.5988 -0.000923213 3.03316
554 2 15.0681 17.3623 0.075431 2.8523
555 2 16.4438 16.4604 4.73562 2.44389
110 1 18.0413 16.6327 2.81071 1.711
181 1 21.75 14.925 0.464541 2.96833
625 2 33.1359 25.1859 22.1645 1.94194
626 2 20.6972 17.4151 -0.176952 5.90801
627 2 21.2086 18.2469 3.16165 4.8965
182 1 24.3291 14.9719 2.11768 1.88847
253 1 26.0796 15.361 3.26358 2.00253
697 2 38.0601 22.7986 22.4718 2.1518
698 2 25.8748 16.9625 -0.396776 2.90317
699 2 24.943 17.3029 3.6284 7.35811
254 1 29.8688 15.1448 2.15817 4.24299
325 1 32.1608 15.2155 0.605279 2.83707
326 1 31.6252 17.8859 0.0137506 1.73144
770 2 45.7679 27.5433 21.4094 1.95037
771 2 28.8682 17.6527 2.87734 3.42008
397 1 31.8356 16.3902 3.30055 1.72297
398 1 39.3837 15.9239 2.82497 4.81498
481 2 10.0757 16.4582 -0.127391 1.98435
842 2 25.9807 26.1696 21.3931 3.23227
843 2 34.7552 18.8645 3.2349 3.33877
483 2 12.0023 16.4304 3.9616 2.16844
493 2 27.6993 28.0331 23.1508 2.32687
49 1 13.4916 19.2038 1.44292 3.5087
50 1 15.8253 20.2207 2.16055 3.56334
61 1 1.1312 -0.924579 -0.628742 3.78803
494 2 41.3763 22.333 -0.403009 2.48455
495 2 43.3153 24.0501 6.64286 3.90315
565 2 16.927 21.2949 -0.255346 2.51801
121 1 17.4914 18.7356 -1.15645 4.01262
122 1 19.8676 18.9022 0.984756 4.8932
133 1 21.6313 23.577 1.68806 3.44137
566 2 18.7296 22.6874 0.886311 3.88985
567 2 16.1239 23.7499 2.62201 3.37201
637 2 23.9133 19.6953 -0.947604 2.65607
193 1 24.5981 18.6905 1.44357 4.31083
194 1 27.3554 21.4725 -0.534016 3.22934
205 1 27.1499 23.8061 0.734538 3.85568
638 2 22.7393 19.046 3.47863 3.06941
639 2 25.0089 22.2157 1.67683 2.21411
709 2 40.1911 30.3868 22.6476 2.24078
265 1 29.2765 18.8821 -0.0857004 4.21683
710 2 30.2517 22.4705 -0.467195 2.48691
711 2 27.2792 21.8618 2.22493 2.28376
266 1 31.5936 19.32 2.59968 1.37117
277 1 31.8678 23.4455 2.17985 4.4203
337 1 33.8317 19.4397 1.5732 4.03707
782 2 51.0649 32.9978 23.0042 3.66398
783 2 32.5373 22.742 -0.511721 4.03809
338 1 36.3247 19.6155 0.200927 4.17797
349 1 36.8582 22.4636 0.933421 1.37657
409 1 38.3706 17.5745 0.715079 4.21292
854 2 38.344 20.0535 -0.302631 8.08838
855 2 39.9245 24.0018 4.54293 2.96579
410 1 42.6032 21.7966 1.91468 3.88844
421 1 38.9116 22.519 -0.0348303 1.20468
62 1 4.1002 -0.644496 0.499869 4.35201
134 1 24.1358 25.3128 2.08147 3.45014
206 1 30.1011 26.3817 3.42397 4.6385
278 1 35.4212 25.2398 1.47642 1.24604
350 1 37.8705 25.5129 1.06991 1.63055
422 1 44.5575 25.5128 2.32123 2.88441
3 1 6.59156 1.83054 2.21192 1.42283
436 2 5.57996 1.52491 4.85192 3.31989
437 2 19.2649 27.0327 6.84768 2.44913
438 2 5.74176 2.69853 7.3407 3.50125
75 1 10.9132 3.41742 3.65099 1.45051
508 2 8.63272 4.7587 1.53095 3.72931
509 2 24.0538 24.9377 9.28403 8.91248
510 2 24.603 27.2336 7.45638 2.31003
147 1 13.1704 4.10962 2.87705 1.37719
580 2 12.859 1.64903 3.79891 7.21814
581 2 14.7379 2.21896 6.09898 2.40178
582 2 15.1666 2.50243 9.33885 2.58298
219 1 21.7378 4.44526 4.12823 4.18928
652 2 19.8819 0.44709 3.94273 2.69268
653 2 20.4181 3.27973 6.09242 2.32177
654 2 23.165 3.69522 7.32573 2.21348
291 1 26.2993 2.01383 5.75736 2.86458
724 2 22.5211 1.62164 5.92177 2.04917
725 2 40.2362 26.1224 7.5706 2.39796
726 2 25.8165 3.86149 7.60343 2.37337
796 2 30.4548 1.39632 3.36321 3.79868
797 2 42.0018 27.2383 8.02957 3.04345
363 1 3.06179 1.01562 3.19935 2.95723
798 2 44.1438 27.2565 7.8198 3.64727
448 2 6.69734 4.87531 0.647425 3.46301
449 2 6.04041 4.85912 3.99715 6.40603
4 1 7.89473 3.43253 3.7008 3.14927
15 1 8.80888 5.47507 5.03291 1.38846
450 2 9.88577 7.06423 7.50466 2.57768
520 2 11.6785 6.51495 4.31755 3.64342
521 2 9.92347 1.50318 4.96125 2.45229
76 1 13.4637 4.7213 5.58772 3.9289
87 1 14.6289 6.25475 4.35744 3.58647
522 2 11.1832 5.51813 6.79683 2.28726
592 2 17.2814 5.82268 4.79563 3.05934
593 2 18.2307 1.59601 5.18454 3.24531
148 1 19.3349 5.20001 3.5791 3.92482
159 1 19.1624 8.09417 4.40676 4.09682
594 2 22.2584 10.3869 7.27804 2.28968
664 2 20.3991 10.0464 2.78141 3.92688
665 2 19.8592 7.63441 7.47028 3.08809
220 1 24.1759 3.14546 4.14079 3.67407
231 1 23.9172 6.41294 3.45258 3.2671
666 2 23.1744 5.80702 5.77054 2.68227
736 2 26.6564 5.77752 3.88965 2.41803
737 2 25.8233 6.27713 6.39649 2.44956
292 1 29.3265 3.9167 8.87439 4.24457
303 1 29.9072 7.66582 3.5798 3.8475
738 2 26.7949 7.84192 8.78951 2.9459
364 1 4.81237 3.6279 5.671 5.10857
375 1 34.4433 7.11068 4.76527 3.70652
808 2 31.4207 2.9244 4.3427 3.82876
809 2 30.0924 6.4407 6.67904 3.18927
810 2 7.41879 4.75841 7.68025 2.46427
16 1 10.3978 9.22475 6.10675 3.25972
27 1 11.6051 11.2808 6.05491 3.86648
460 2 9.93204 10.8229 4.18186 1.98568
462 2 40.7226 13.0477 7.79009 1.90419
28 1 12.8024 13.6633 6.38437 3.16672
88 1 15.6655 9.21515 5.01422 4.60859
99 1 14.7505 12.1679 4.03665 4.05529
532 2 13.1137 10.1633 3.96709 3.76013
533 2 14.157 6.99681 8.77418 2.37075
534 2 17.156 10.1105 7.7053 2.66957
100 1 17.4895 13.8571 7.75649 6.09054
160 1 19.7757 10.9445 5.54744 3.60505
171 1 20.8465 12.5628 3.78351 4.08003
604 2 18.3885 13.7526 2.46733 8.2208
605 2 19.226 10.1369 8.55164 3.1025
606 2 20.6911 12.377 6.95787 4.01835
172 1 22.7126 13.4512 6.6569 3.79966
232 1 26.9894 11.0233 4.06611 3.21414
243 1 24.9897 10.9279 6.37788 3.51013
676 2 21.899 9.44145 4.14869 2.44697
677 2 24.7912 9.2682 8.18664 2.2095
678 2 25.5484 11.5 9.92031 2.48469
244 1 29.6632 10.8206 4.46362 1.68395
748 2 29.1453 9.62245 2.44819 7.28266
749 2 27.5757 8.1946 6.0639 2.12294
304 1 30.152 9.44099 6.8769 3.49935
315 1 33.3556 11.1542 5.27882 1.90405
316 1 35.4516 13.0888 5.54733 5.12413
750 2 31.1832 11.4948 6.43896 9.58656
820 2 34.8067 9.7942 2.69691 2.86425
821 2 33.536 8.21265 7.42642 2.59346
376 1 8.1227 7.76968 5.18622 3.84902
387 1 35.4564 9.8414 6.04388 2.68381
388 1 38.4229 12.4905 6.32645 3.33725
461 2 14.5133 10.8448 6.63086 1.79688
822 2 10.4394 9.41013 9.41168 2.76617
472 2 39.53 14.6788 5.74496 2.28599
39 1 14.78 17.4824 6.79288 3.33354
40 1 16.2563 19.045 5.69147 1.21872
474 2 42.1344 17.9576 7.83492 7.73797
544 2 17.3478 12.7278 4.37269 2.2278
545 2 17.9223 17.1509 8.79108 2.43298
111 1 18.8664 18.2553 4.28547 1.70794
112 1 23.2018 16.7236 8.05961 4.56418
546 2 20.147 15.4374 8.40361 2.76743
616 2 24.9674 11.8217 3.90432 3.41436
617 2 19.5072 15.1591 4.3105 2.69583
183 1 23.5791 15.5915 5.60131 4.65424
184 1 26.9659 18.7448 4.30062 1.78862
618 2 21.9001 14.573 10.2327 10.1663
688 2 25.7572 14.237 5.19552 2.47548
689 2 26.973 16.0067 6.78366 2.35208
255 1 28.9909 16.6012 5.03276 1.69615
690 2 27.7096 15.0896 9.49531 2.14092
256 1 31.3939 18.0612 6.00083 1.25902
327 1 33.5974 16.8499 6.3758 2.14694
760 2 31.2073 13.2472 7.16092 2.82396
761 2 29.7593 13.2501 9.60979 2.20124
762 2 34.8909 15.5615 9.29534 2.48461
328 1 35.4821 18.7406 6.00525 4.34412
399 1 39.1471 18.7247 4.0444 4.70498
832 2 36.9146 15.8378 3.38208 3.00318
833 2 37.6034 16.2331 6.21537 2.8051
834 2 39.6579 17.8219 6.26454 2.18316
400 1 42.6578 18.3778 5.52823 3.31497
473 2 41.9415 15.9075 8.07956 2.54913
51 1 16.4179 21.1426 4.45921 1.68132
484 2 14.2067 19.5991 3.86905 6.28718
486 2 44.4312 21.1285 8.58976 3.53133
496 2 43.4404 22.9354 3.64972 1.98724
52 1 20.5534 20.1798 4.73339 3.55952
123 1 19.9124 22.2471 2.53498 4.0816
556 2 18.3436 19.4634 2.62685 7.27904
557 2 20.1066 17.3731 6.47295 2.66555
558 2 25.5296 21.6666 8.57982 2.57861
568 2 21.9201 22.6284 4.55627 2.24718
569 2 23.5191 23.6524 8.96328 6.19441
124 1 24.2842 22.0229 5.96723 3.81963
195 1 25.1555 20.0743 3.42402 1.9714
628 2 23.1434 20.75 4.64752 3.41118
629 2 22.7592 19.2134 7.71482 2.83554
630 2 29.0822 18.7532 7.67881 7.91755
640 2 28.2948 23.1365 4.39925 2.63365
641 2 29.6117 21.9788 6.28514 2.36279
196 1 26.3251 20.9575 6.34244 1.65794
700 2 27.1701 19.6948 1.95747 2.41164
701 2 29.6951 15.2034 7.19738 2.44216
267 1 29.5007 19.2393 5.59894 1.62653
268 1 33.9614 22.7521 6.80275 1.24902
702 2 32.4635 20.8138 5.69601 7.28292
712 2 33.1135 22.3331 3.43304 6.50742
713 2 30.2308 21.2165 4.07326 3.18821
772 2 32.5556 19.3728 4.63808 7.00805
773 2 36.5466 18.4811 8.6316 2.73399
339 1 35.0219 20.9235 4.39205 1.56074
340 1 37.5999 21.6845 4.68175 4.4522
774 2 35.7404 20.7535 7.54895 4.10336
784 2 38.3575 23.8301 2.60259 3.97056
785 2 34.947 25.821 5.78845 3.64747
844 2 38.013 20.7683 2.04622 3.43888
845 2 39.4902 19.1861 8.14721 2.57492
411 1 41.9276 20.0459 3.73263 4.07659
412 1 15.6146 22.8537 5.8599 3.10039
485 2 43.8831 20.5543 5.74533 3.54069
846 2 41.7493 20.6274 7.01765 3.32096
856 2 39.8652 24.8794 0.190499 2.78381
857 2 39.5186 22.4557 6.51 2.58978
497 2 18.5423 20.8252 6.86942 3.58896
63 1 19.6725 24.8661 3.32255 3.87521
64 1 24.8991 25.2267 6.59297 1.93336
498 2 18.5851 23.0966 5.86561 2.53013
135 1 25.6954 24.2099 4.23337 3.12369
136 1 27.8634 26.7251 5.66483 4.68321
570 2 26.834 24.0274 7.41866 7.16924
207 1 32.1199 23.0144 5.32837 1.58959
642 2 29.0575 27.059 9.53951 11.5967
208 1 33.3138 24.9478 3.55198 1.56408
279 1 35.4843 23.2583 2.90129 1.26798
714 2 34.0418 24.2604 8.54632 8.36848
280 1 36.5348 26.3689 7.89754 4.27662
351 1 38.0293 25.0609 6.31289 3.22285
786 2 37.9481 25.621 10.4681 2.79797
352 1 41.3352 26.0096 4.81529 3.83319
423 1 44.0731 25.9717 5.78221 4.68393
858 2 45.6178 23.9229 9.12217 2.30236
424 1 16.6454 25.3986 4.22274 3.34636
439 2 47.7047 28.6432 13.1915 2.71612
511 2 9.28004 3.06766 9.17979 2.24808
583 2 31.0659 26.3269 9.54089 3.15112
655 2 35.9735 27.589 9.59833 3.82881
727 2 26.2419 4.18128 10.3497 6.59563
799 2 31.2317 2.9145 10.4059 3.69279
5 1 6.3656 2.97929 9.53448 4.70622
6 1 13.1726 5.02558 11.9371 4.89906
7 1 11.9942 5.81759 15.4542 3.79627
440 2 51.5578 28.2298 12.4047 3.03637
451 2 10.7623 5.43953 9.61008 3.6782
77 1 11.9687 2.56307 6.90989 4.09101
78 1 14.8404 4.60159 8.26874 4.59338
79 1 13.9571 3.8708 13.7211 1.53594
512 2 16.3086 4.51971 11.6056 3.00456
523 2 15.2176 8.04516 12.3166 2.64904
149 1 17.3265 5.33578 9.05697 5.89907
150 1 22.1236 3.56041 9.56858 4.84158
151 1 19.3514 5.19245 14.4484 5.59114
584 2 19.3278 3.77649 11.0247 3.03737
595 2 15.6941 5.52942 13.4713 2.8956
221 1 23.7843 5.9259 10.1928 5.06933
222 1 26.2708 5.6625 8.88319 4.72948
223 1 26.9963 6.17241 12.0319 1.54995
656 2 23.576 4.79173 14.5863 3.51174
667 2 19.6553 6.48829 10.1056 3.64834
293 1 29.1986 6.32791 10.3989 1.64378
728 2 27.9979 3.98933 11.4426 7.0473
739 2 30.1618 9.53638 11.9371 1.8325
294 1 32.9588 6.64547 9.57256 5.02507
295 1 28.9807 6.16559 13.624 2.95861
365 1 32.741 4.19225 10.5204 4.62056
800 2 31.2564 6.74205 11.9841 2.17571
811 2 35.3937 6.43175 11.0179 3.80126
366 1 8.39219 5.30572 10.1357 3.78667
367 1 37.3168 6.18555 14.7286 6.02067
17 1 11.7121 7.18402 9.86241 3.91528
452 2 11.0187 7.82732 13.7441 2.5277
463 2 11.1007 9.38667 11.9804 3.46261
18 1 12.901 9.6784 9.90015 4.50081
19 1 13.6862 10.27 12.7496 3.69951
29 1 14.4914 15.0976 8.3234 4.20597
89 1 17.1212 7.65473 8.33407 4.97462
464 2 41.356 13.916 10.61 2.97659
524 2 15.462 10.1332 10.9391 2.75955
535 2 14.7921 12.8056 8.22155 2.88761
90 1 18.8365 9.61366 10.5853 2.29258
91 1 18.7445 9.36398 12.7858 4.42171
101 1 17.3731 11.8836 11.1423 3.77719
161 1 22.7872 9.32076 10.7056 5.08447
536 2 19.512 10.2773 15.8026 2.28461
596 2 21.4244 11.1406 13.0378 2.76261
607 2 23.1064 14.4949 11.9767 4.70639
162 1 23.8663 11.0566 12.6884 1.29183
163 1 23.3905 9.38844 14.3444 1.35791
173 1 22.939 12.7966 9.09733 4.3829
233 1 24.6526 8.23603 5.84859 3.74484
608 2 23.0339 12.3401 14.0247 3.97645
668 2 25.3862 7.37679 10.8951 8.99121
679 2 28.015 8.79667 11.2314 3.16053
234 1 27.1737 12.3983 7.15805 6.47708
235 1 28.8302 11.8139 13.1141 1.85249
245 1 27.7096 11.51 10.9604 4.20687
680 2 26.5499 13.7636 14.9519 2.33345
305 1 30.5007 8.18019 9.09492 1.63846
306 1 32.2349 10.3055 9.09722 1.43216
307 1 33.9244 10.3494 12.5906 2.94238
317 1 34.4971 11.2398 7.71028 1.38114
740 2 31.4711 11.5178 11.3577 1.6517
751 2 29.3784 10.6786 9.16553 3.0696
752 2 35.985 12.7552 8.87266 2.21116
377 1 35.1219 8.58808 9.9272 4.41733
378 1 37.9116 9.80437 9.9122 3.62027
379 1 38.4516 10.281 13.0228 3.60987
389 1 38.5619 13.0205 8.63429 3.53759
812 2 36.1824 10.5468 11.2951 2.96656
823 2 38.1265 9.20664 7.39727 2.55631
824 2 40.085 12.0196 11.5181 2.19826
30 1 17.0727 14.6696 10.6213 3.97839
31 1 15.3161 13.8414 13.0502 3.46357
41 1 16.8617 19.5901 8.2883 2.90911
476 2 42.6899 16.5762 10.6255 2.75829
102 1 19.8729 12.4814 9.72478 3.43966
103 1 20.8341 15.0377 12.5639 5.07109
113 1 21.5929 19.2925 10.0831 3.92019
547 2 15.4547 17.4274 12.0428 2.50057
548 2 21.5682 17.3544 11.6745 4.94842
174 1 24.1511 14.8688 9.63039 4.82292
175 1 25.9473 12.9481 12.2743 2.20404
185 1 27.2289 17.8272 8.54703 4.32386
619 2 25.145 17.2618 11.3051 2.63756
620 2 27.0352 15.7712 12.3556 3.12264
691 2 30.3503 14.3191 12.0069 2.33764
246 1 32.9164 12.9076 9.37502 3.17021
247 1 30.7256 13.158 14.109 2.5584
257 1 31.4566 15.87 9.44 5.41728
692 2 32.5637 16.4164 11.6239 3.30824
763 2 34.5932 15.028 11.7741 2.514
318 1 37.2865 14.8375 10.2371 3.24494
319 1 36.6304 14.1761 13.5002 3.81844
329 1 38.671 19.1462 10.5535 3.30858
764 2 36.9863 17.0813 12.4464 4.41058
835 2 38.8521 15.5032 12.1045 2.61161
390 1 38.1277 16.9267 8.47842 3.90522
391 1 41.5752 13.6128 14.7391 3.49224
401 1 41.4785 18.4619 10.2699 4.96701
475 2 41.7471 19.0442 13.4209 3.20015
836 2 41.9728 16.3102 14.801 2.21272
42 1 19.3313 20.5986 10.0961 3.6535
43 1 19.2292 19.091 12.5192 3.64433
53 1 21.0569 21.541 7.53827 5.62222
54 1 19.0616 25.2279 8.74076 5.55427
55 1 22.1199 24.6355 12.0389 7.03544
488 2 18.0497 23.727 10.4796 2.68327
559 2 20.2421 22.2147 12.1384 2.18994
114 1 23.4986 18.7635 11.444 4.86521
115 1 25.0358 19.8218 13.3326 4.05597
125 1 27.9287 22.2188 8.11018 1.62636
126 1 26.4785 23.3048 10.2989 1.68837
127 1 27.6389 22.9278 12.3504 1.51757
560 2 22.4079 21.3601 10.1438 2.57343
631 2 26.093 20.3224 11.3636 2.82094
186 1 28.3476 17.2239 11.0782 3.68459
187 1 29.324 20.1624 12.6584 1.70704
197 1 30.0576 21.2231 8.98319 4.08121
632 2 28.4989 19.3019 9.80509 8.46628
198 1 28.7119 24.0919 9.4918 1.7988
199 1 29.8578 22.2698 12.107 1.9962
258 1 32.9183 18.3863 7.88028 1.65597
259 1 34.0575 18.3964 11.8459 5.21848
269 1 33.7754 20.5808 8.3995 3.57405
703 2 30.4559 18.7729 9.97928 2.69663
704 2 32.2986 20.0815 11.7771 4.70599
270 1 35.0016 20.2004 11.1831 1.75404
271 1 36.6219 22.8387 12.658 1.45005
330 1 39.9978 21.6912 9.31422 1.95115
331 1 39.0165 17.9668 13.21 3.01363
341 1 36.1053 23.7073 8.00107 3.16978
775 2 35.0746 20.4569 14.9479 3.32501
776 2 39.5472 21.8119 11.9654 9.71332
342 1 39.2643 23.4336 10.5883 3.96647
343 1 40.1784 23.6664 13.6431 3.73099
402 1 43.6987 19.2895 9.11722 4.31753
403 1 44.3764 18.9363 14.0743 3.63558
413 1 41.9834 22.2952 8.53969 1.76178
847 2 42.5728 21.9482 11.6142 3.20156
848 2 43.2731 24.4396 13.6718 2.70709
414 1 17.2501 22.1801 8.43586 3.19498
415 1 47.7187 19.8899 14.7234 3.16306
487 2 45.5611 19.8896 11.3161 2.40561
65 1 22.2798 25.556 7.18438 4.20704
500 2 48.7288 28.254 9.41848 2.21828
66 1 23.2476 27.6739 10.3762 3.77377
67 1 22.6501 27.6082 15.0887 4.8654
137 1 26.7014 25.817 8.99363 1.12697
571 2 24.6096 25.8427 11.6158 2.55709
572 2 30.3824 27.9131 14.0643 2.58667
138 1 27.5919 28.2581 9.9388 4.12836
139 1 26.917 28.8831 12.7828 4.09252
643 2 28.1393 25.3424 12.1257 2.7589
209 1 32.8912 25.09 6.33435 1.58329
210 1 17.8192 2.84172 8.95891 4.57963
211 1 33.6721 27.7434 10.9179 4.87173
644 2 30.7593 24.4446 11.4808 2.90124
715 2 32.6989 22.8295 9.77073 2.86321
281 1 33.476 26.5204 9.0548 1.86098
282 1 40.0737 28.1586 9.59281 3.12191
283 1 38.7824 28.4295 12.0291 4.73935
716 2 35.236 26.0845 11.736 3.81903
787 2 35.9602 24.6084 10.4531 2.99987
353 1 42.43 24.5513 9.19924 3.59722
354 1 43.8369 28.1551 10.3835 3.8126
355 1 42.1038 28.3769 12.0456 2.92181
788 2 41.1079 26.0491 10.8995 2.31714
859 2 45.1994 22.4158 11.3252 2.82275
425 1 46.9021 25.1027 6.94905 1.63765
426 1 46.1589 26.5865 8.95567 3.50595
427 1 47.8812 27.8014 15.4551 3.08085
499 2 48.9864 26.3936 13.7999 2.57035
860 2 44.1159 25.7486 9.98064 3.59934
441 2 52.6953 29.7976 15.3254 4.72068
442 2 9.76319 4.78297 12.0315 4.35898
8 1 13.8906 7.1882 13.9288 3.8384
9 1 12.8382 6.66755 17.3485 1.53139
513 2 14.2185 5.31374 15.8967 7.09557
514 2 16.3959 5.50356 15.8307 7.85023
80 1 17.9347 6.55532 16.9131 4.1011
81 1 17.2016 7.3011 19.1783 1.51564
585 2 32.6496 29.7855 15.0199 2.70329
586 2 19.0185 5.84704 19.3581 6.00409
152 1 24.0201 7.74419 12.4086 4.96068
153 1 22.9848 7.88654 16.1926 1.19759
657 2 20.8898 5.06634 16.1813 2.99562
658 2 24.9326 5.75933 19.2521 7.51377
224 1 25.6346 8.20492 15.2128 4.43333
225 1 28.1197 5.38857 18.3662 3.5701
729 2 44.1965 30.4392 15.8526 4.56501
296 1 32.2755 7.1419 15.7278 1.70366
297 1 33.9837 9.76939 15.6773 3.00059
730 2 31.7557 6.15291 17.5125 4.25398
801 2 47.5183 30.24 17.6379 2.79772
368 1 9.17804 6.91564 11.7585 4.43676
369 1 38.1878 7.61877 18.0116 5.2087
802 2 33.6807 7.07157 17.7438 2.99037
453 2 38.6441 8.60492 14.8253 2.80805
10 1 14.7923 7.8522 18.7026 2.96683
20 1 15.72 11.074 13.7357 3.43646
21 1 14.6584 10.315 16.0079 4.56441
454 2 12.652 8.726 16.3101 7.22031
525 2 17.2747 8.52449 14.6639 2.79933
22 1 17.3411 13.7295 17.2336 3.80843
82 1 21.8379 7.24982 18.0677 1.05008
92 1 22.0412 10.2066 17.1213 4.51466
93 1 21.0057 12.8683 18.3796 4.82171
526 2 19.6692 8.3915 18.0192 3.10849
537 2 19.9474 13.9318 15.8444 2.92725
597 2 20.5617 8.14049 15.3041 2.22282
94 1 24.2692 12.0575 19.4021 3.89067
154 1 27.4641 7.85168 18.1568 3.41209
164 1 26.2623 10.9623 12.9686 1.72458
165 1 26.618 11.162 19.2551 2.37095
598 2 26.0775 11.6253 16.688 3.47165
609 2 22.6017 14.0324 16.8781 2.72811
669 2 27.5131 8.66477 13.3192 3.3265
166 1 27.8819 13.2494 16.962 4.73098
670 2 27.8571 9.83903 16.2483 2.31745
681 2 31.4526 12.9851 16.5385 2.16161
226 1 46.8322 31.9057 19.5653 3.72114
236 1 32.0254 9.9811 14.1836 1.7575
237 1 31.1539 10.3402 16.8603 5.5957
238 1 33.8551 13.1606 18.8831 4.46638
741 2 29.9403 8.07077 14.3325 1.99692
742 2 33.4098 13.0463 14.0799 3.15334
753 2 36.7854 12.7478 16.6359 4.19658
298 1 36.1572 9.11735 19.3055 1.60292
308 1 36.3795 11.8521 14.348 3.79999
309 1 35.4105 11.4376 17.547 4.06376
310 1 39.3529 12.7513 18.1035 4.41953
813 2 35.3457 7.63756 14.557 2.84883
814 2 37.0729 9.57503 17.5546 12.4813
825 2 38.8008 12.6432 14.5823 3.4761
370 1 40.9447 8.69687 18.844 5.29896
380 1 41.7033 10.5669 14.2062 2.69248
381 1 41.4543 10.992 16.8688 3.91679
382 1 44.7647 13.8596 18.1082 3.58797
465 2 13.4456 12.8965 14.9556 8.09745
466 2 17.6952 10.6993 17.129 2.89674
32 1 18.0206 16.8487 12.8774 3.94532
33 1 19.1306 17.9098 17.5072 1.72878
34 1 21.7833 17.9534 17.1919 4.3235
538 2 20.5391 15.878 17.6201 2.25587
549 2 20.1823 18.0381 14.9888 2.63414
104 1 22.7222 14.5968 14.4656 4.49649
105 1 24.6601 16.1533 19.2963 3.57763
106 1 26.4678 18.0413 18.4923 4.35417
610 2 25.1013 15.2412 16.0432 3.16603
621 2 26.9106 18.3991 13.0667 2.1942
176 1 28.6131 15.0397 13.6923 3.96478
177 1 28.6116 16.2282 17.0121 4.7831
178 1 31.0185 16.8836 17.6971 3.95418
248 1 33.4411 15.1764 13.669 4.04362
249 1 33.5257 15.8577 17.3042 4.33577
682 2 30.7968 15.8446 15.495 3.02441
693 2 30.4275 16.8545 12.241 1.94398
250 1 35.2541 16.6252 18.5136 4.49306
320 1 39.1005 15.705 14.5105 1.55568
321 1 36.9015 15.1683 16.4599 3.34174
754 2 38.9769 15.8449 18.6113 3.23094
765 2 33.5152 18.4559 17.92 2.06019
322 1 41.5794 16.2616 17.4588 3.98471
392 1 43.1619 15.2751 12.6679 4.15682
393 1 15.9802 15.586 15.931 4.02674
826 2 40.2928 14.4615 16.8947 6.7316
837 2 43.5001 14.9068 15.5511 3.40239
394 1 46.7539 17.9825 19.0282 3.22778
477 2 43.0221 18.3447 11.4473 10.7843
44 1 21.9795 21.2206 13.9483 3.90891
45 1 22.3611 20.5343 17.2959 3.34887
478 2 20.4379 20.2605 15.2221 3.8305
490 2 50.3467 25.5509 14.9762 2.82022
46 1 24.2563 22.7482 19.6177 4.15016
116 1 26.8962 20.9936 14.3866 4.51002
117 1 25.6756 21.3449 17.0322 5.3404
550 2 24.0316 19.0706 15.5063 1.94748
561 2 25.5495 22.3732 13.0518 5.68204
562 2 28.5199 23.5348 16.4415 2.4147
118 1 29.9038 24.4317 19.054 4.21988
622 2 25.7335 17.4943 15.8994 3.05826
633 2 29.9528 21.3331 16.3177 3.12806
188 1 31.2366 19.7921 14.2492 4.55048
189 1 30.8446 19.6021 17.9395 3.49886
190 1 31.9342 21.6591 19.6217 4.02391
634 2 31.6102 23.7111 17.2579 3.01327
694 2 33.2259 19.0704 15.6658 3.26903
705 2 32.4983 22.3287 13.3276 2.3455
260 1 36.8868 20.2386 12.6475 3.37223
261 1 37.3634 17.4959 15.2947 4.49974
262 1 37.4169 22.2834 18.3677 5.38937
706 2 34.5977 21.2699 17.0382 2.98663
766 2 39.4023 16.927 16.7106 3.6626
777 2 36.8032 23.5009 15.324 2.06965
332 1 41.4792 21.1571 14.1635 3.6575
333 1 42.5615 21.0793 16.839 2.8528
334 1 43.8447 22.0815 19.1352 3.78158
778 2 38.6352 20.8954 15.9664 2.63191
838 2 44.1877 17.5009 16.9889 2.27904
849 2 44.7707 22.9295 15.9955 3.54853
404 1 16.1286 17.4181 14.5083 1.86884
405 1 46.2032 20.0977 17.4548 5.62505
406 1 48.4096 21.9673 16.2691 4.14554
489 2 19.8186 23.1207 14.4273 2.39914
850 2 46.1525 24.417 17.9421 3.93887
56 1 23.8088 25.8693 14.2458 2.67915
57 1 22.9202 24.6812 19.1692 4.11228
58 1 26.2245 26.3697 19.2804 1.93532
502 2 24.6455 26.6951 16.3786 4.38032
573 2 26.2867 25.3036 15.0923 1.92159
128 1 30.6598 25.3028 15.8815 4.63925
129 1 28.0733 26.5184 17.812 4.51829
574 2 28.7933 28.4681 16.7138 3.37118
130 1 31.3799 26.9962 17.9903 3.90884
200 1 33.9336 24.0588 12.2128 4.68341
201 1 33.0305 25.8695 16.2535 5.54266
645 2 33.2231 27.4668 13.302 1.98875
646 2 33.85 28.2523 17.9723 4.46985
202 1 34.838 28.4135 15.1668 4.45971
272 1 37.7236 25.1351 13.1274 1.72381
273 1 38.5552 24.2069 17.2168 3.81314
717 2 35.7164 25.2084 14.9653 2.34063
718 2 38.4099 27.3933 15.7204 4.32378
274 1 41.4734 25.0827 17.568 4.31704
344 1 42.4135 27.7632 15.2889 5.45609
345 1 42.8813 23.9363 15.8871 5.09124
789 2 39.9327 26.6402 14.3861 3.30926
790 2 44.5345 27.6032 18.1912 2.02197
346 1 47.0227 26.0852 17.3148 1.72012
416 1 46.5404 24.8023 15.2779 4.16325
417 1 48.9822 25.1593 19.0876 1.57178
861 2 46.2383 25.3569 12.6749 2.92216
862 2 50.2603 26.2392 17.161 3.02444
418 1 51.9879 27.6159 18.304 4.12036
501 2 50.0166 29.6596 14.4999 2.28948
68 1 24.8841 27.7714 13.8664 2.58521
69 1 25.3566 30.0569 16.4957 4.37907
70 1 27.6833 30.0449 18.6783 3.44262
140 1 29.4294 27.8236 11.5147 4.4459
141 1 30.8218 29.3059 16.9182 3.89329
142 1 32.7283 30.81 17.8077 1.73044
212 1 37.1274 27.4555 13.7955 4.5111
213 1 35.7047 29.3829 18.0112 4.29279
214 1 38.4053 31.1853 17.5948 3.6992
284 1 27.0403 3.99864 13.8205 3.39811
285 1 41.5423 30.9062 16.4066 3.59352
286 1 42.6076 28.9836 18.4959 3.44606
356 1 31.4519 5.39775 14.2533 3.66304
357 1 45.6009 28.9382 15.8487 3.47419
358 1 50.4299 30.6185 21.3111 4.06708
428 1 34.3784 5.8645 15.8617 4.77212
429 1 50.4891 29.9813 17.0299 3.66765
430 1 37.5216 5.65938 16.869 2.1688
443 2 39.1522 5.72505 16.1078 10.9949
444 2 12.4495 6.89902 19.5409 7.40552
515 2 30.1481 31.0222 19.033 3.49501
516 2 32.2285 32.7844 22.4762 7.74578
587 2 34.5947 30.1975 20.2048 2.08773
588 2 24.7278 8.36867 18.0369 3.70777
659 2 42.1118 31.9551 20.1624 3.67748
660 2 28.0901 9.32272 21.8474 7.40047
721 2 34.1855 7.01924 22.7545 3.12024
731 2 47.6792 29.607 20.3577 3.17377
732 2 33.1623 8.44544 19.8731 2.71418
793 2 38.4384 7.03181 22.8998 6.90045
803 2 35.3058 6.94103 20.1961 1.95022
804 2 52.6571 32.6419 20.0948 2.28624
11 1 15.1653 6.90298 21.101 1.24089
455 2 43.5875 11.8007 18.3685 2.3337
456 2 18.2555 7.91316 21.1706 6.65501
12 1 19.3943 9.57996 21.7728 5.25845
23 1 19.2604 13.1137 19.8019 4.26088
83 1 20.4614 7.02078 20.4286 1.54318
527 2 19.8074 11.0593 19.756 4.25709
528 2 21.6309 14.8369 20.6302 2.61808
84 1 21.5744 8.09315 22.2061 3.55509
95 1 24.0373 15.5087 21.6357 3.96504
155 1 25.9111 8.35733 20.8607 3.06224
599 2 22.9256 9.62417 19.8582 1.9076
600 2 28.6194 11.3019 22.9011 2.39328
156 1 29.3219 8.4809 22.8494 1.57262
167 1 28.5458 11.7769 20.3272 3.88762
671 2 28.773 9.23496 19.1751 2.75696
227 1 31.019 8.14264 20.9024 1.88667
228 1 34.1688 9.97487 22.1072 1.44062
239 1 33.303 12.7171 21.2813 3.54453
672 2 31.1393 12.7564 19.2334 2.32622
743 2 32.0141 10.0516 20.3983 2.993
299 1 36.4544 8.62003 21.8022 1.79066
300 1 38.8177 9.72682 22.7294 1.38245
311 1 37.9578 10.4559 19.7422 4.55427
733 2 19.1514 3.81784 -0.60729 2.88157
744 2 36.9453 11.5235 22.8903 7.73598
815 2 38.9234 7.82715 20.5327 6.53373
371 1 41.2083 8.37596 22.401 1.54571
372 1 42.8788 10.7561 21.31 5.18229
383 1 43.7316 13.0984 21.2855 1.83768
805 2 25.9057 2.34004 -0.019611 2.94382
816 2 40.9176 12.6067 21.4304 2.28512
24 1 7.22269 6.2805 -1.29294 4.58836
35 1 19.4557 18.8745 19.3587 5.28417
468 2 18.0753 15.934 18.4744 3.37723
539 2 19.4911 16.4454 21.1324 2.27322
96 1 27.3223 14.6943 23.0678 5.49509
107 1 28.6032 17.4041 22.2347 3.4466
540 2 22.2994 17.5785 22.0462 2.35769
611 2 26.0722 17.125 21.0443 2.18819
612 2 25.5591 13.5233 20.6202 2.17889
168 1 30.9968 16.9061 21.5045 2.06407
179 1 30.681 19.0726 22.1613 1.99502
683 2 30.4225 14.6579 17.7593 3.99807
684 2 32.5939 16.9218 19.8553 3.76306
240 1 21.5538 5.4211 -1.33212 3.13655
251 1 35.9498 16.6145 21.4107 4.23929
745 2 38.3939 13.0272 21.479 2.83704
755 2 35.6141 10.8332 21.0821 9.01227
756 2 37.4655 18.2312 18.4063 1.608
312 1 42.5598 16.1684 21.0548 1.54917
323 1 40.5773 16.8272 19.6036 4.91182
817 2 29.347 7.87333 -0.999104 7.64123
827 2 41.4227 13.9694 19.4354 2.85644
828 2 44.2177 15.8852 18.9925 3.47038
384 1 16.2681 14.1416 20.1014 2.95911
395 1 45.8699 16.9514 22.0336 4.13819
467 2 17.2842 9.96744 19.7005 2.32943
480 2 21.3694 22.3417 19.7058 2.02206
36 1 21.6602 19.9094 23.1126 4.18777
47 1 23.6277 21.6051 22.36 3.99649
48 1 26.1226 22.1906 23.3256 4.14675
551 2 23.8916 19.61 19.3897 2.2735
552 2 26.0435 20.1559 20.7962 1.89729
563 2 23.2702 22.4604 15.3242 3.27463
108 1 28.9114 21.9251 22.1134 3.46587
119 1 26.0437 24.1235 18.0892 3.43834
623 2 29.0842 15.7612 19.2163 3.74966
120 1 31.0821 22.3238 21.4779 1.71669
180 1 33.0952 18.1078 22.3231 3.46109
191 1 33.5057 21.243 22.3075 3.57147
624 2 28.1593 19.3027 19.4314 2.54435
635 2 33.2836 24.1726 18.8832 2.50696
695 2 35.7023 19.2789 19.9987 2.30769
192 1 35.44 23.8528 22.2326 3.93491
252 1 22.14 8.57023 -0.968201 4.28023
263 1 38.8689 21.1612 20.4192 4.64306
696 2 37.6235 18.1542 20.9883 2.5998
707 2 35.0281 22.3258 19.5351 2.2325
767 2 40.107 19.4404 18.6278 2.06673
264 1 41.4338 25.1477 21.7048 2.81235
324 1 42.8732 18.3315 22.1789 4.30925
335 1 43.7982 24.1705 21.9394 3.28128
757 2 41.273 21.8507 21.2227 2.35264
768 2 41.0854 21.5578 18.4734 2.22141
779 2 41.8082 23.8733 19.122 6.9823
839 2 42.6874 18.3278 19.3354 2.4959
336 1 46.9289 23.5011 22.9097 1.14894
396 1 48.2482 18.8989 21.8815 3.84548
407 1 48.3571 21.4791 22.8918 3.61064
479 2 49.5652 21.245 19.187 3.032
829 2 28.169 14.2152 0.21757 2.82841
840 2 44.8682 21.2887 22.021 2.24592
851 2 46.8499 19.7882 20.2719 5.07296
408 1 50.5414 22.72 22.9126 4.59212
491 2 20.9576 23.214 16.8305 2.6906
59 1 25.8754 28.7945 20.4132 3.91007
492 2 52.8333 24.0499 22.4126 2.28627
503 2 52.2793 26.733 20.3438 12.2767
60 1 14.4847 22.5057 0.501269 3.30552
564 2 27.5528 23.4378 20.4629 2.5621
575 2 28.937 28.0669 19.5173 7.10396
131 1 31.037 28.0784 21.8879 4.84619
132 1 35.3735 27.7647 22.8503 3.31392
636 2 36.6674 25.9477 18.8499 2.09456
647 2 35.9195 28.3876 20.023 2.61249
203 1 36.8866 25.9432 22.1608 4.11075
204 1 23.8126 15.8596 -0.431736 4.20204
708 2 38.7394 24.7746 20.7696 2.82493
719 2 38.8531 27.404 21.0468 1.8727
275 1 41.0798 27.059 19.3845 4.23924
276 1 42.5538 28.7707 21.3581 5.16081
769 2 26.9146 13.6316 1.83538 2.56205
780 2 43.455 26.7463 22.3387 2.49634
791 2 43.9567 25.2116 19.558 3.67865
347 1 45.9935 23.871 20.4903 1.27857
348 1 47.9247 25.3224 21.8097 1.15553
841 2 35.3938 16.48 -1.17214 2.18302
852 2 48.8902 22.6653 20.7354 3.50265
863 2 48.9892 28.1914 18.2717 2.6844
419 1 50.2249 25.2956 20.8721 1.21115
420 1 52.5732 27.5037 22.5055 4.97947
504 2 55.3874 31.3479 19.1735 3.38986
71 1 28.6542 30.5023 21.2946 3.48319
72 1 30.0185 31.9903 22.8945 1.41846
143 1 34.6724 30.4174 23.0657 3.16737
576 2 31.8057 30.4288 21.402 2.21825
144 1 22.3455 21.546 -0.73244 4.92682
215 1 23.9067 6.34923 21.0942 4.02508
648 2 37.1571 31.5516 19.2435 7.77068
216 1 42.8255 32.6661 22.7504 2.65913
287 1 45.2015 32.7273 21.7039 1.97066
720 2 39.9776 29.8958 19.9012 2.09289
288 1 31.7679 24.7036 -1.27485 1.78781
359 1 48.1166 31.2307 21.9987 4.19054
781 2 32.1279 20.1097 -0.897588 2.19714
792 2 47.5047 26.4632 19.5843 8.72809
360 1 52.3323 30.0517 22.5833 1.51855
431 1 54.8316 30.1068 21.7058 1.64512
853 2 49.333 28.3085 20.9414 3.22822
864 2 24.1581 27.8614 18.0574 2.80416
432 1 55.7134 32.5234 21.9676 2.83988
ITEM: TIMESTEP
475
ITEM: NUMBER OF ATOMS
864
ITEM: BOX BOUNDS xy xz yz pp pp pp
-1.7873466619937515e+00 5.9444717295131071e+01 1.5425173467339800e+01
-1.6867683202474859e+00 3.3850754562557093e+01 1.5277274806139562e+01
-1.4695416721897399e+00 2.3478143618022735e+01 8.8203387218085840e+00
ITEM: ATOMS id type x y z f_grace_gamma
433 2 58.3834 32.8733 22.7701 3.54856
434 2 1.79598 2.06491 -1.25386 2.07457
435 2 1.67314 1.49274 1.2634 2.51169
445 2 16.6544 11.8651 21.1549 2.37204
1 1 4.20049 2.9895 1.16476 4.40605
2 1 21.5858 11.5125 23.4103 4.63769
505 2 35.8454 32.89 23.3216 6.81345
506 2 5.82512 0.42031 -0.144572 2.71317
507 2 23.7673 25.1589 5.09556 10.5778
517 2 21.6717 11.9904 20.9192 1.91704
73 1 9.17238 1.71419 0.854935 5.6516
74 1 12.2042 2.72678 0.798247 1.58735
577 2 24.033 23.7805 -0.537265 2.19611
578 2 10.5306 -0.592479 -0.558015 2.14947
579 2 28.4937 25.7417 2.53789 3.05273
589 2 24.0611 9.99957 22.7953 2.35058
145 1 13.0171 0.473792 0.407685 4.09002
146 1 14.764 3.01373 1.13776 3.94008
649 2 30.6888 25.3558 0.903136 2.53593
650 2 32.5543 8.74056 23.1872 7.0062
651 2 15.73 0.983946 -0.0961323 2.51538
661 2 30.0689 12.1518 21.5159 2.4607
217 1 18.9256 1.69303 0.249581 4.35901
218 1 20.7975 1.75609 2.04216 1.90429
722 2 20.2685 -0.397653 -0.725782 7.74056
723 2 39.1847 27.1056 4.46687 2.40461
289 1 22.2856 1.49547 0.343525 1.92385
290 1 28.7395 2.62728 3.82897 4.12961
794 2 43.756 24.3507 0.0328126 3.69271
795 2 26.9563 2.50662 2.73423 2.74965
361 1 29.2631 1.26551 0.45538 4.87783
362 1 31.8229 3.8697 0.506421 3.67853
13 1 34.5268 6.98402 2.34059 3.84361
446 2 4.46757 5.41631 -1.01254 2.66926
447 2 33.4074 4.46984 3.0768 2.56683
457 2 32.5122 6.38586 -1.14467 2.22118
14 1 6.85179 6.56669 2.96986 2.68374
85 1 10.9502 5.63691 1.86769 3.15347
518 2 9.30518 7.20571 0.30363 2.29837
519 2 25.802 13.4314 23.2555 2.9016
529 2 7.07682 8.99917 3.92061 11.8405
86 1 12.6571 7.81246 2.36515 3.47665
157 1 17.6245 6.19701 -0.771511 5.00285
590 2 15.8455 4.35476 -1.39289 2.73801
591 2 14.7007 6.83624 0.614027 2.46819
601 2 30.3478 15.5501 22.9502 2.005
158 1 20.2921 7.9782 2.24644 4.05575
229 1 21.6149 5.06774 1.06278 4.46915
662 2 16.7779 2.99083 -0.725143 3.67424
663 2 16.4249 2.41497 3.40574 3.69675
673 2 18.2147 6.05813 1.31217 2.92524
230 1 23.1513 7.79161 1.49223 3.68042
301 1 42.9032 13.9877 23.1058 4.47696
734 2 23.9247 4.01744 0.818928 2.31444
735 2 28.9692 4.68414 0.360672 2.50534
302 1 27.3214 7.37123 0.693682 5.05604
806 2 29.5575 3.04468 -1.39665 3.87756
807 2 30.3241 4.68327 2.41777 2.20925
373 1 30.4874 5.24688 -1.35818 1.4147
374 1 32.078 6.72009 2.43601 4.26963
458 2 5.03064 8.50488 -0.560357 2.68359
25 1 37.3641 12.4678 1.16962 4.32511
26 1 12.663 11.88 2.09169 3.94341
470 2 38.2114 14.6881 1.8675 3.22883
471 2 38.3406 13.562 3.95369 1.97919
530 2 6.68583 9.98466 0.315153 2.46834
531 2 9.89308 8.53667 3.17522 2.4556
541 2 9.19125 10.6755 -1.44898 2.53866
97 1 13.126 9.96811 0.226682 4.57493
98 1 16.1428 14.8763 2.78981 5.0018
542 2 13.3225 15.2106 1.46095 2.91282
543 2 12.5836 14.0114 3.49139 2.45161
602 2 19.7821 7.0655 -1.10414 4.75619
603 2 15.8037 11.989 2.10958 2.51068
613 2 14.8247 12.2165 -0.652122 2.203
169 1 17.8618 13.2041 0.0287825 4.39481
170 1 20.3217 13.2506 1.07176 3.7125
614 2 18.3428 15.7795 -0.728695 4.253
615 2 21.226 16.3083 2.92602 2.57168
674 2 16.305 8.44539 0.285039 2.62301
675 2 17.4669 10.2069 5.04491 2.88412
685 2 19.4647 9.53443 -0.569759 2.46071
241 1 23.9537 10.6596 0.593699 4.0417
242 1 26.7019 10.2734 0.945979 4.23607
686 2 22.3351 11.6175 -1.01553 2.4799
687 2 25.7432 12.5571 -0.00466245 2.68719
746 2 40.0286 17.9649 21.7705 2.60322
747 2 24.3962 7.01635 -0.615482 2.54002
313 1 29.4227 10.3717 -0.71645 3.67539
758 2 29.1932 13.9965 6.18566 2.73105
759 2 31.1345 14.8857 5.41251 3.00089
314 1 29.473 11.9903 2.68787 4.68478
385 1 35.4675 11.7497 -0.0107788 4.80081
818 2 32.3948 8.13803 0.0306449 2.78346
819 2 32.9731 9.59132 3.26778 2.90579
830 2 30.6336 13.1957 -0.0702821 2.50328
831 2 33.0232 14.5115 7.03578 3.55914
386 1 33.6067 13.3948 3.44604 9.28405
459 2 38.231 10.4055 4.90325 2.34126
469 2 35.6368 16.9214 1.85012 2.75913
37 1 9.06741 12.288 0.505368 3.87637
482 2 40.4401 19.3278 -0.060279 3.74847
38 1 10.3899 14.3747 2.08809 3.84483
109 1 16.509 15.204 0.430771 2.38017
553 2 13.0214 16.6968 0.0731561 4.29649
554 2 15.454 18.196 0.391344 3.27847
555 2 17.2682 16.7731 5.49662 2.72823
110 1 17.5922 16.5343 2.61666 5.47825
181 1 21.4968 15.0161 0.0609126 3.41998
625 2 33.2443 25.8019 21.4978 2.54217
626 2 21.7373 17.3337 -0.256708 4.35325
627 2 20.553 18.7073 2.30007 3.77146
182 1 24.2187 14.424 2.11422 5.04184
253 1 26.1914 15.5839 3.57902 4.15551
697 2 37.9974 22.3275 22.0989 2.1383
698 2 26.9104 17.2275 0.246739 2.78752
699 2 24.7957 17.8261 4.68039 3.15935
254 1 30.1706 14.8223 2.29813 4.59212
325 1 32.7644 15.4636 0.740223 3.41892
326 1 31.7309 18.0512 -0.234812 1.81723
770 2 46.1162 28.0764 21.6013 2.83052
771 2 29.4713 17.3004 2.87911 6.74945
397 1 31.5066 16.9552 2.845 1.52877
398 1 39.6179 16.14 3.50558 4.70365
481 2 9.78976 15.8968 -1.14218 2.87108
842 2 26.4508 27.0963 22.1063 2.1899
843 2 36.2409 17.9876 3.83144 3.58828
483 2 11.9012 16.3482 3.70006 1.82418
493 2 13.1018 18.1942 -1.12859 4.39771
49 1 13.5888 19.8521 1.1933 3.90204
50 1 15.7579 20.3553 1.84198 4.11364
61 1 0.773762 -0.870867 -1.27388 5.05174
494 2 41.2803 21.8116 -0.617912 3.03197
495 2 44.0748 23.8779 5.89627 3.57609
565 2 17.1944 20.7537 -0.273471 3.88092
121 1 17.9779 18.5835 -1.14368 4.9051
122 1 19.2981 19.0324 0.589853 2.07842
133 1 22.168 23.5908 1.4302 2.99679
566 2 19.0747 23.8409 0.709957 3.44989
567 2 16.2804 23.3272 2.10733 2.91338
637 2 24.4806 20.0058 -1.22175 2.49644
193 1 24.7385 18.727 1.58346 5.10124
194 1 27.848 21.7535 -0.621436 1.67574
205 1 27.5538 23.8162 0.45993 2.01034
638 2 22.7494 18.2786 4.63724 1.97919
639 2 24.9184 22.0526 1.15721 2.07521
709 2 41.2916 30.6615 22.4683 2.34759
265 1 29.6769 19.2988 0.17533 3.57292
710 2 30.0137 22.2368 -0.514308 3.78305
711 2 26.9047 22.6734 2.53993 2.74028
266 1 31.5653 19.1893 2.24379 1.67111
277 1 32.4389 23.5095 2.08488 3.14096
337 1 33.7585 19.4939 1.50512 4.98307
782 2 37.1067 23.6522 -0.614407 6.77299
783 2 32.3723 22.2381 0.0565024 2.38381
338 1 36.2543 19.4268 0.537318 3.95968
349 1 36.6267 22.1637 0.73306 1.47369
409 1 38.5631 17.9265 0.575691 4.46333
854 2 39.0265 20.1506 -0.789076 9.28329
855 2 40.2226 23.6578 4.82773 2.58461
410 1 42.7102 22.0091 2.13248 4.79288
421 1 38.9778 22.3553 0.00229836 3.94518
62 1 3.73365 -1.13209 -0.0719583 4.45035
134 1 24.331 25.6557 2.26377 4.15058
206 1 14.8048 0.51227 3.37587 4.66527
278 1 35.7483 25.5165 1.69954 1.23005
350 1 37.7749 25.8369 0.799724 1.69092
422 1 44.4156 25.4981 2.40697 4.38774
3 1 6.36741 1.89601 2.16191 1.6149
436 2 5.91557 1.59486 4.47542 4.58812
437 2 18.8746 26.9865 6.37266 2.45367
438 2 5.14225 2.05449 7.61816 3.76122
75 1 10.1866 3.4629 3.51087 1.60405
508 2 8.57833 4.85052 1.7094 4.00616
509 2 24.912 25.7006 9.5851 2.83529
510 2 24.5065 27.931 6.99653 2.58137
147 1 13.0762 4.12461 2.7521 1.40542
580 2 12.6958 2.30773 3.87455 7.42244
581 2 15.2974 1.70458 6.754 2.27053
582 2 30.8279 28.9303 9.9488 2.62783
219 1 22.0445 4.04472 4.36385 3.99325
652 2 36.5229 26.6852 3.62826 2.4665
653 2 19.9119 3.39784 5.83008 2.21343
654 2 24.3711 3.62139 7.01893 2.30732
291 1 26.5779 2.03939 5.6874 3.24755
724 2 22.1649 1.18987 6.46636 2.68348
725 2 40.6747 25.5144 7.92853 2.38494
726 2 26.3748 3.75561 7.11526 2.73422
796 2 30.7549 1.3823 2.80069 2.7154
797 2 42.0173 27.4849 8.36843 2.68494
363 1 3.47314 0.629775 3.24822 3.74523
798 2 44.0742 28.1941 8.0987 2.35893
448 2 5.75147 4.18119 0.896263 8.94538
449 2 5.04381 4.52774 2.70523 8.0582
4 1 7.71029 3.11081 3.67728 1.33906
15 1 9.32072 4.95237 4.92846 1.34001
450 2 9.71643 6.81009 7.23298 2.21044
520 2 11.5878 7.26114 5.11722 2.29052
521 2 25.7622 26.8142 3.93105 3.24243
76 1 13.0403 4.04053 5.29376 4.52576
87 1 14.9036 6.09131 4.0353 5.57645
522 2 10.8197 4.39266 7.51668 3.1748
592 2 17.8299 5.35176 5.72799 3.35657
593 2 18.014 1.24509 6.20092 2.02012
148 1 19.7981 5.12126 3.44699 3.95518
159 1 19.4124 7.95472 4.29442 4.44106
594 2 22.4152 10.5195 6.59683 2.93854
664 2 19.9641 10.8875 2.62207 2.54394
665 2 19.857 8.11803 8.37759 4.95619
220 1 24.1822 2.76775 3.92683 3.67284
231 1 24.1789 6.12707 3.15007 4.5484
666 2 23.2937 5.75674 5.75925 2.79697
736 2 27.4819 5.34042 2.98973 2.66223
737 2 25.8934 6.19432 6.67153 2.41783
292 1 29.657 4.0259 8.91254 3.50506
303 1 30.3379 7.79897 3.32274 3.62865
738 2 28.6628 8.26137 8.00794 8.46223
364 1 4.74956 3.66672 5.41465 6.59488
375 1 34.9378 7.62986 4.91411 4.29978
808 2 31.1575 2.80548 4.76099 4.35136
809 2 29.813 5.76964 7.42764 3.60159
810 2 8.40685 4.28947 7.15091 2.76187
16 1 10.039 9.07914 6.20376 3.76022
27 1 12.1446 11.4297 6.48602 3.8406
460 2 10.201 11.2347 4.80879 2.73253
462 2 11.169 12.7416 8.07521 1.99567
28 1 12.9116 13.9924 6.67768 3.93099
88 1 15.7282 9.12157 4.57591 4.62992
99 1 14.2589 12.5986 4.41571 3.03092
532 2 13.4547 9.71198 4.08261 2.76722
533 2 14.0515 6.48653 8.93026 3.41193
534 2 17.8872 9.2645 7.17478 3.28487
100 1 17.2641 13.5219 7.95923 4.74766
160 1 19.9828 11.0874 5.81236 4.00176
171 1 20.9975 12.8523 3.55795 4.02268
604 2 18.1422 13.5204 2.38654 4.7264
605 2 20.059 10.3767 8.01596 3.00688
606 2 19.5364 13.8172 6.97839 2.33001
172 1 22.6625 13.2591 6.77587 5.28389
232 1 27.4182 11.6106 4.35146 4.35778
243 1 24.4869 10.8516 6.09011 5.0316
676 2 22.0447 8.78015 4.19717 2.40739
677 2 25.8363 8.68247 8.04921 2.19333
678 2 25.6703 11.2231 9.86196 2.17857
244 1 30.4501 10.1228 4.68757 3.847
748 2 28.6401 9.23233 1.76311 4.50121
749 2 28.0483 8.07575 5.72321 2.66053
304 1 30.4312 9.43218 7.04803 1.85463
315 1 33.873 10.7157 5.22525 3.67732
316 1 35.972 12.896 5.17944 4.53087
750 2 30.8209 11.6991 6.23983 3.75763
820 2 34.9602 10.0341 2.5642 2.62252
821 2 33.5031 8.12432 7.25505 5.5148
376 1 8.10917 7.46398 4.84558 1.61168
387 1 36.1449 9.32979 6.05529 1.74998
388 1 38.5155 12.5457 6.37796 3.0549
461 2 14.7269 10.9073 6.02014 2.79156
822 2 10.1405 9.13293 10.0764 2.46514
472 2 40.3555 15.5005 5.54667 2.58092
39 1 14.6615 18.1455 7.1676 1.60917
40 1 16.5564 19.2328 5.80288 3.18876
474 2 42.5315 18.6522 7.32846 3.19456
544 2 18.1049 12.5818 5.061 2.41823
545 2 18.2742 17.2832 9.19677 4.67911
111 1 18.8748 18.5089 4.23709 1.81312
112 1 23.6379 16.6261 8.1777 6.44824
546 2 20.7978 14.8206 8.81767 2.70349
616 2 24.4397 12.4169 3.56305 2.48881
617 2 19.0395 14.868 5.11196 2.15855
183 1 23.4797 15.9194 5.80988 4.58662
184 1 27.5496 18.566 4.03204 3.71557
618 2 21.3441 13.6986 10.6662 4.09654
688 2 27.1082 13.7184 5.36287 11.8477
689 2 26.3872 15.8269 7.13417 2.72327
255 1 29.3218 17.0232 5.5057 1.5688
690 2 27.7982 15.6024 9.77517 3.33224
256 1 31.2729 18.0321 5.72662 1.31655
327 1 33.4189 16.6906 6.2604 3.49438
760 2 30.9955 12.9386 7.6515 2.88346
761 2 29.2418 12.187 9.85109 2.62308
762 2 35.6525 15.4241 9.48789 2.66801
328 1 35.4783 18.9569 6.07076 3.98322
399 1 38.9329 18.842 4.13074 5.11128
832 2 37.0557 15.8875 3.39196 2.75784
833 2 36.4311 16.5726 5.61373 3.19412
834 2 39.7283 17.6495 6.09411 2.33903
400 1 12.9094 18.4791 5.0413 3.98573
473 2 41.5191 15.9208 8.36546 2.57909
51 1 16.9875 21.2073 4.08604 1.56296
484 2 14.5941 19.968 3.9143 7.53791
486 2 44.7033 22.1666 8.55034 2.39565
496 2 43.3145 23.5544 4.22021 3.24955
52 1 20.7243 20.0638 4.61678 3.66516
123 1 20.133 22.0914 2.9009 3.29911
556 2 18.333 20.6321 2.33663 6.68889
557 2 20.8329 17.0029 4.95948 2.31377
558 2 25.7488 22.1311 8.38414 3.41916
568 2 21.8932 23.1674 4.81977 2.1688
569 2 23.7536 22.8872 8.96545 2.5065
124 1 24.3181 22.9171 6.15565 3.32104
195 1 25.1291 20.2027 3.29136 4.39654
628 2 23.2103 20.9005 4.42713 2.40674
629 2 22.4665 18.6167 8.15347 3.33128
630 2 30.6355 18.1183 7.97746 6.46219
640 2 28.7803 23.4934 4.11319 3.13538
641 2 30.6269 21.7428 6.64104 3.87193
196 1 26.36 20.5724 6.758 5.84999
700 2 27.0883 20.334 1.22304 2.13022
701 2 29.5767 14.7964 8.31563 2.20501
267 1 29.577 19.9227 5.42078 4.27402
268 1 34.3873 22.9375 6.86529 3.71814
702 2 32.2433 20.5308 6.52468 5.67419
712 2 34.0221 21.305 2.45173 6.3691
713 2 30.4405 21.7575 3.50801 2.49312
772 2 33.0565 19.7277 4.12014 7.87643
773 2 35.809 19.3153 9.31008 9.30807
339 1 35.1149 21.2294 4.58945 1.41148
340 1 37.4714 21.7124 4.6144 4.14132
774 2 36.3018 21.4278 7.14494 4.04649
784 2 38.5477 23.7398 2.43024 2.55172
785 2 35.64 26.529 6.2219 4.60336
844 2 38.6395 20.371 2.62891 4.26033
845 2 40.6134 19.2113 8.12148 2.58066
411 1 42.6192 20.1502 3.56704 2.06295
412 1 15.7846 22.9659 5.59757 3.93874
485 2 44.0859 21.8997 5.13174 3.09536
846 2 41.9023 21.1319 6.18273 2.60212
856 2 24.9995 -0.914353 0.307744 2.8165
857 2 40.1079 21.6364 6.49802 3.00743
497 2 18.9091 21.3729 5.93263 3.56855
63 1 20.0352 25.2202 3.15504 3.47236
64 1 25.7099 25.1846 6.64024 1.59735
498 2 18.543 23.4815 5.11318 3.79417
135 1 25.7902 24.3325 4.01915 3.76039
136 1 28.2708 26.9187 5.46807 3.21528
570 2 27.9203 24.5127 5.87018 3.58504
207 1 32.3794 22.72 4.94791 3.01755
642 2 29.1546 26.4487 7.9929 2.25353
208 1 34.2093 24.7549 3.2804 1.63661
279 1 36.0425 23.227 2.61456 1.34334
714 2 34.0875 24.4755 9.51084 4.17908
280 1 36.8368 26.4043 8.32698 4.63232
351 1 38.0922 25.3552 6.31498 4.73773
786 2 38.7312 26.104 10.9929 3.42536
352 1 41.739 26.1064 4.71749 4.164
423 1 44.7404 26.4377 5.27454 3.74231
858 2 46.2754 24.2918 9.69512 2.31954
424 1 16.9016 25.2917 4.02741 3.0814
439 2 47.2759 28.6212 13.1191 3.21429
511 2 9.07519 3.03658 8.32837 4.68903
583 2 31.446 25.951 9.22721 2.5168
655 2 35.6163 28.8857 9.33257 2.51081
727 2 26.6726 3.63118 10.4968 6.13475
799 2 46.5331 28.4479 10.7414 2.67998
5 1 6.66637 3.00669 9.31202 5.92021
6 1 13.4542 5.32418 11.7303 4.15463
7 1 11.8886 5.64688 15.417 1.76262
440 2 21.5863 27.413 11.9364 3.86926
451 2 10.9333 3.65052 9.43022 12.6307
77 1 11.5998 2.32856 6.2997 1.86704
78 1 14.8041 4.35061 8.28768 4.13144
79 1 28.9194 29.7667 13.9105 4.00212
512 2 16.6058 4.7417 11.7251 2.6305
523 2 15.8635 8.46428 12.5422 2.74664
149 1 16.9875 5.41505 9.24628 2.7959
150 1 23.0843 3.34903 9.44958 5.46749
151 1 18.8875 4.91286 14.504 4.24908
584 2 19.1111 4.01511 11.4213 3.27928
595 2 15.0524 5.0862 13.6911 4.23608
221 1 23.6432 6.28207 9.95541 6.02208
222 1 26.2425 5.95077 8.94173 4.05385
223 1 27.1288 5.64759 11.6726 1.29263
656 2 23.8225 4.07296 14.1961 4.23177
667 2 18.7154 6.36979 10.2386 5.41366
293 1 29.1673 6.21455 10.3543 1.70266
728 2 29.2841 3.31361 12.2503 4.08617
739 2 31.0124 10.8889 12.133 1.93327
294 1 33.3694 6.80459 9.50222 4.99368
295 1 29.0393 6.02364 13.5215 3.40241
365 1 32.6407 4.91045 10.591 5.66314
800 2 31.5849 6.71155 11.9006 3.03238
811 2 35.7714 6.10705 11.5067 4.92855
366 1 8.42182 4.93758 9.90876 4.54684
367 1 37.6666 6.3217 14.6327 4.72922
17 1 12.0106 7.10695 10.3363 3.67165
452 2 10.4722 7.02199 14.3676 8.83665
463 2 11.2027 9.32397 12.1313 3.76768
18 1 12.8998 9.40653 9.94103 3.97404
19 1 13.581 10.2718 12.6011 3.57582
29 1 14.5732 15.4026 8.36511 4.62869
89 1 17.4574 7.32889 8.12783 5.11977
464 2 41.3014 13.7175 10.7505 3.43029
524 2 15.4269 10.3697 9.33941 3.04593
535 2 15.3221 12.4153 7.70289 2.75335
90 1 18.7038 9.70319 10.2699 4.0766
91 1 18.6329 9.52738 12.7765 4.6322
101 1 17.3633 11.6337 11.612 2.01813
161 1 23.0664 9.35425 11.12 4.15632
536 2 19.717 9.69157 15.9828 3.0695
596 2 20.987 11.4991 13.0511 2.91745
607 2 24.0096 14.9481 11.8893 2.64338
162 1 23.9518 11.3342 12.834 3.45867
163 1 23.1651 9.23753 14.3279 2.0477
173 1 23.1216 13.1152 9.13552 5.55341
233 1 24.0939 7.74588 5.64866 3.55489
608 2 23.0291 12.1923 15.3905 2.19653
668 2 25.8553 7.98639 10.2732 3.72489
679 2 28.2143 8.2933 10.5113 2.83174
234 1 27.2354 12.4676 7.0364 4.54025
235 1 28.8288 12.348 13.5495 1.8313
245 1 27.9902 11.021 11.2328 3.05766
680 2 25.8673 14.3112 13.9937 3.07272
305 1 30.6296 8.10585 9.06827 1.3699
306 1 32.2218 9.85058 8.88832 1.24537
307 1 34.0363 10.4646 12.6046 3.81543
317 1 34.5582 10.5665 7.93265 1.50379
740 2 33.0983 11.253 10.7423 2.39388
751 2 28.8852 9.90444 8.921 3.38265
752 2 36.7426 13.2014 8.22224 3.12587
377 1 35.1627 9.02748 10.0501 4.18105
378 1 38.1978 10.1055 9.65113 4.96259
379 1 38.5248 10.3959 13.1856 4.36695
389 1 39.158 12.9225 8.82201 4.04888
812 2 36.1182 11.4622 11.8272 4.77805
823 2 7.87322 7.56409 8.58195 2.7683
824 2 40.7776 11.4144 10.893 2.22922
30 1 17.2379 14.4647 11.125 4.05577
31 1 15.1243 13.5835 12.7721 3.98625
41 1 16.807 20.1768 8.02838 4.2975
476 2 43.6656 17.0262 9.71226 3.88414
102 1 19.4546 12.1137 10.0362 4.0672
103 1 20.74 15.072 12.2751 4.31064
113 1 21.6545 19.614 10.0123 3.94417
547 2 14.8876 17.4745 12.0161 3.47426
548 2 21.6327 17.2619 11.046 2.2445
174 1 24.0771 15.2476 9.66508 2.0704
175 1 26.327 13.167 12.0056 4.77279
185 1 27.5899 18.0117 8.48299 4.19515
619 2 25.4068 17.0402 10.8559 2.72181
620 2 26.3311 15.2035 12.3253 4.01782
691 2 31.3074 14.7789 12.3876 2.24349
246 1 33.7717 13.238 8.82603 3.72726
247 1 31.1917 13.0344 14.7027 3.33465
257 1 32.119 16.1218 9.0842 3.67977
692 2 33.1139 16.5839 11.0836 2.69959
763 2 35.3438 14.6629 11.4577 2.06697
318 1 38.0108 14.484 10.1554 3.63293
319 1 37.5875 14.1495 13.608 3.46821
329 1 39.0333 19.4382 10.7754 1.16777
764 2 37.0546 17.3493 12.3669 4.1918
835 2 39.6343 15.6172 11.7674 1.75115
390 1 38.0783 17.547 8.24311 5.88055
391 1 41.7387 13.3089 14.6748 3.10973
401 1 41.3376 18.6778 10.3129 4.65753
475 2 42.3688 19.0079 14.1322 2.35923
836 2 41.3185 17.4421 15.4377 2.20022
42 1 19.3848 20.9146 9.79992 4.40513
43 1 19.6351 19.3241 12.2564 3.51839
53 1 21.2634 21.4856 7.37425 5.44675
54 1 18.962 25.3848 8.37664 5.16738
55 1 22.2934 24.3282 12.1261 4.53768
488 2 18.5916 23.4923 9.99706 3.37202
559 2 19.5484 22.4116 11.7092 2.41025
114 1 23.5807 19.2097 11.7457 3.70672
115 1 24.9294 20.3284 13.5532 3.96817
125 1 28.3496 22.6365 7.55092 3.84746
126 1 26.2717 23.2051 10.3124 3.23606
127 1 28.0046 22.8644 12.6661 3.31624
560 2 22.992 21.8109 10.3674 2.74725
631 2 26.8156 20.6262 11.5279 2.5091
186 1 28.2544 17.1341 11.3049 3.06584
187 1 29.6809 20.0391 12.7752 3.7389
197 1 30.8644 21.3522 9.34278 3.76355
632 2 28.57 19.861 9.8601 2.23627
198 1 28.5342 24.2295 9.41159 1.8527
199 1 30.5731 22.3446 11.7255 3.56394
258 1 32.8579 18.6125 7.95737 1.37537
259 1 34.1376 18.1839 12.1714 4.42779
269 1 34.1231 20.5004 8.86123 2.93091
703 2 30.8136 18.861 10.2449 3.4048
704 2 32.1286 20.6476 12.7122 3.84849
270 1 35.4746 20.1344 11.0233 1.87502
271 1 36.9893 22.9695 12.5379 3.99117
330 1 40.0901 21.6179 9.59476 4.5563
331 1 39.4477 18.1299 13.6252 3.50074
341 1 36.3283 24.1939 7.6679 2.24297
775 2 35.9539 19.829 14.9546 2.9051
776 2 39.7633 21.0594 12.1427 8.59487
342 1 39.4924 23.8598 10.4048 4.35404
343 1 39.9129 23.9055 13.3422 3.08413
402 1 44.1765 19.3496 9.19436 3.66697
403 1 44.8578 19.0452 14.3163 4.11404
413 1 42.2959 22.0523 8.68456 4.02943
847 2 43.4765 22.3532 11.3914 2.85607
848 2 43.5739 25.5326 13.6154 1.99784
414 1 17.6698 22.1918 8.46336 1.66025
415 1 18.0162 19.1036 14.7577 3.92164
487 2 45.7291 19.9351 11.6085 3.49615
65 1 22.5283 25.5947 6.69565 4.91302
500 2 49.1549 28.2035 8.69433 3.72809
66 1 23.1035 27.8477 10.1724 5.82766
67 1 22.493 27.625 15.6375 4.08151
137 1 26.8333 25.9435 8.86871 1.60717
571 2 24.8123 26.7146 11.4242 2.85787
572 2 31.4708 28.9042 13.752 2.45659
138 1 27.5235 28.961 9.72819 4.97029
139 1 26.9462 29.1086 12.617 1.67932
643 2 28.6397 25.5283 12.7669 2.37539
209 1 33.1565 25.4129 5.74352 3.31786
210 1 18.0661 2.93103 8.54773 4.40957
211 1 33.6042 28.2023 10.7588 3.52627
644 2 31.5183 24.6489 11.4872 2.7635
715 2 32.6317 22.227 10.3896 8.49885
281 1 33.7417 26.7686 8.60029 1.72997
282 1 40.428 28.8662 9.51931 2.17965
283 1 38.886 28.2871 11.794 4.56457
716 2 35.1888 26.473 12.0959 2.46432
787 2 36.5347 24.0645 10.4674 2.41751
353 1 42.489 24.4652 9.68154 4.19968
354 1 43.8932 28.0356 10.6068 4.00405
355 1 41.8114 28.4028 12.313 3.32334
788 2 41.1881 25.3618 11.5916 3.75324
859 2 45.7403 23.214 11.6938 3.2251
425 1 47.5968 25.5095 6.9816 2.19069
426 1 46.1664 26.6713 9.01631 4.31777
427 1 48.2445 28.2175 15.8747 2.49739
499 2 49.1116 26.5462 13.3129 2.87535
860 2 44.4914 25.8077 10.9731 2.98298
441 2 53.6091 30.5165 15.8305 3.16274
442 2 10.4435 4.04932 12.9301 4.00308
8 1 13.4472 7.06821 14.2605 3.23796
9 1 12.6747 6.7297 17.6409 1.37472
513 2 14.8868 5.62133 16.8221 3.85779
514 2 16.7779 5.61433 15.0624 2.64112
80 1 18.0967 6.5601 17.1987 3.89002
81 1 16.8619 7.06674 19.3766 1.42116
585 2 32.2748 30.3493 15.2389 8.16257
586 2 33.9766 31.347 19.5534 2.82133
152 1 24.1171 7.66496 12.5193 5.28037
153 1 23.1138 7.52343 16.4864 1.2907
657 2 21.0457 4.94916 16.4897 4.48936
658 2 39.9929 32.2482 19.1072 3.45647
224 1 25.163 8.21553 15.559 3.23688
225 1 43.6607 31.8499 18.923 3.55329
729 2 44.1359 30.7706 16.7882 4.2755
296 1 32.2048 7.91126 15.7398 1.51227
297 1 34.652 9.87401 15.2469 1.52192
730 2 31.5172 7.0011 18.1413 2.22463
801 2 47.7163 31.1086 17.426 2.26169
368 1 9.48931 6.99609 11.8893 4.09596
369 1 38.8117 7.52122 18.0344 3.67966
802 2 34.734 7.8646 17.862 2.09811
453 2 38.7533 8.13658 14.4789 3.101
10 1 14.3559 7.73959 18.5869 1.5127
20 1 16.2356 11.3317 13.9924 3.27872
21 1 14.4674 9.83325 15.5859 3.8492
454 2 12.767 8.55062 16.0275 6.36983
525 2 17.1718 9.06168 14.9316 2.46902
22 1 17.2629 13.3162 16.8866 4.33844
82 1 22.0819 6.85451 18.5585 0.978223
92 1 22.5101 10.0399 18.1063 3.52712
93 1 21.286 12.9932 18.0393 3.9181
526 2 19.0974 8.29568 18.67 2.39074
537 2 20.4267 13.6128 16.0825 3.98078
597 2 20.6447 6.93595 15.8394 2.2521
94 1 24.1941 11.5447 19.3857 3.7481
154 1 27.9001 7.69073 17.9938 4.56844
164 1 26.4276 10.2721 13.262 5.12782
165 1 26.676 11.1635 19.4084 2.11388
598 2 25.5012 11.359 16.8065 2.25014
609 2 23.968 14.6114 17.1262 3.16984
669 2 27.995 8.47204 14.0342 2.52211
166 1 28.2551 13.2769 16.8574 4.66472
670 2 27.8384 9.76383 16.5432 3.15238
681 2 32.6841 13.0798 16.7606 3.81594
226 1 46.9392 31.6479 20.0352 3.23413
236 1 32.1909 9.82168 14.0213 1.75831
237 1 31.1199 9.89474 16.3916 5.01857
238 1 33.9568 13.073 18.919 3.87275
741 2 30.1032 8.6084 14.3984 3.91016
742 2 34.0045 12.5726 13.0002 2.07025
753 2 37.8737 13.0213 16.7443 1.92233
298 1 35.8034 8.85271 19.6599 3.22509
308 1 36.5588 11.3048 14.332 1.53474
309 1 34.7305 11.6818 17.1871 4.06851
310 1 40.1545 12.3619 18.5991 4.59456
813 2 35.2848 8.11337 13.8675 2.63562
814 2 36.4408 10.2315 16.3951 12.6943
825 2 39.5387 12.5832 14.8482 3.55209
370 1 40.9624 8.7238 18.9324 4.19743
380 1 11.7889 10.5853 14.2306 1.71486
381 1 41.9317 10.9712 16.7839 3.30376
382 1 45.2312 13.8674 18.1524 4.56241
465 2 13.8864 12.5878 14.4097 3.33824
466 2 17.25 9.78376 18.103 3.10145
32 1 17.6215 17.2917 12.4221 3.45754
33 1 19.4527 17.9986 17.6852 3.30385
34 1 22.2378 18.2033 16.9435 3.62386
538 2 20.6411 15.7422 18.2534 1.95936
549 2 20.3861 17.4849 14.4942 2.34415
104 1 22.7635 14.5074 14.6634 5.32874
105 1 25.0184 16.4161 19.5617 4.38522
106 1 26.3012 17.8823 18.2121 4.50675
610 2 24.7632 15.5096 15.988 4.30054
621 2 27.6204 18.182 13.8439 2.29543
176 1 29.0278 14.6497 13.7586 4.42422
177 1 28.558 16.5475 16.6599 3.86156
178 1 31.112 17.2547 17.6764 3.06275
248 1 33.5656 15.3126 14.2208 4.76073
249 1 33.4462 15.4644 17.3162 1.57999
682 2 31.2323 15.8636 15.3682 3.68456
693 2 30.7567 17.3288 11.8295 1.98091
250 1 35.6374 16.3267 18.8049 3.86037
320 1 39.5967 15.5241 14.677 4.21368
321 1 35.9453 15.2149 16.3415 3.60633
754 2 38.3811 15.1451 18.3373 2.65096
765 2 33.9415 18.0767 18.11 2.2194
322 1 42.271 15.85 17.7506 3.4186
392 1 43.8162 15.314 12.0997 5.71152
393 1 16.011 15.5395 16.0426 3.40219
826 2 40.6214 13.8588 16.5582 7.38167
837 2 43.4858 15.5008 15.5514 1.95895
394 1 46.7691 17.4369 19.196 4.49402
477 2 43.85 19.2305 12.2896 3.22171
44 1 22.0411 21.3847 13.4088 4.82565
45 1 22.5626 20.8633 17.1748 2.88992
478 2 20.672 20.6711 15.9997 3.52908
490 2 21.0193 25.4861 14.959 3.28655
46 1 24.868 22.7453 19.6198 2.93823
116 1 27.3489 20.8971 14.4717 3.1235
117 1 25.8135 21.198 17.2762 4.90207
550 2 23.8245 17.7406 15.4932 2.81185
561 2 25.2118 22.6062 12.6356 3.39071
562 2 29.3836 23.7713 17.053 3.33864
118 1 30.1698 25.0012 19.4646 4.41726
622 2 26.1115 16.9248 15.6685 2.77222
633 2 29.8168 21.7147 15.8897 2.73011
188 1 31.5996 19.3157 14.8852 3.52719
189 1 30.3653 19.6275 17.9192 4.03837
190 1 32.6253 21.9665 19.9106 3.78139
634 2 31.9184 23.1377 17.5958 2.19793
694 2 33.2949 20.0346 16.3183 2.94781
705 2 32.9938 22.3631 12.8588 4.59019
260 1 37.514 20.4081 12.3583 1.24314
261 1 37.2886 17.0025 14.7869 3.75111
262 1 37.325 22.9499 18.657 3.86272
706 2 34.6865 21.1554 18.4788 2.56235
766 2 40.1682 17.7278 17.1259 2.08789
777 2 37.5025 23.9685 15.8786 2.48764
332 1 42.237 21.5879 14.3343 4.52903
333 1 43.7266 20.9661 16.521 3.07102
334 1 44.1467 22.1415 19.3472 4.37274
778 2 38.2508 20.7693 15.8591 3.31212
838 2 44.9639 18.1159 16.6381 2.09965
849 2 45.7563 22.747 16.4004 7.95664
404 1 15.975 17.1327 14.1015 1.82715
405 1 46.6027 20.5032 16.9839 3.20116
406 1 48.4033 22.1364 15.9759 2.83365
489 2 49.605 24.0528 14.381 2.61268
850 2 46.1709 23.9821 17.9752 2.26783
56 1 23.4237 25.782 13.6589 4.03477
57 1 22.8821 24.7783 19.6474 3.58508
58 1 26.3773 26.3907 19.4496 2.02538
502 2 26.0491 26.7004 16.0548 2.51755
573 2 26.2849 24.9273 14.097 2.48273
128 1 30.4473 25.7365 16.3367 3.89629
129 1 27.9944 26.5873 17.5532 4.54232
574 2 28.2068 29.5719 16.5211 2.81013
130 1 31.7498 27.1086 18.274 3.76935
200 1 34.0044 24.0105 11.7566 4.09953
201 1 33.6966 26.2641 16.1075 4.05596
645 2 33.3209 26.9868 13.056 2.14369
646 2 34.0045 27.8586 18.2009 2.74109
202 1 35.0567 29.335 14.7816 5.19355
272 1 37.967 25.4083 13.5423 1.99781
273 1 39.2377 24.3896 17.253 3.9133
717 2 35.2845 25.5968 14.7558 2.84026
718 2 38.8777 27.2614 15.9451 2.93693
274 1 41.2504 25.2135 17.3725 1.91904
344 1 42.6423 28.7065 15.4989 4.41261
345 1 43.3087 24.2434 16.0364 4.46987
789 2 40.6746 25.9813 14.4885 3.03663
790 2 45.7586 28.2155 18.1468 2.12481
346 1 47.5449 26.4632 17.2435 3.66128
416 1 46.5015 24.6746 15.2179 4.11157
417 1 49.0735 25.1241 19.1748 3.47813
861 2 46.2363 25.805 12.6677 2.36885
862 2 51.6586 25.6746 17.6013 2.36616
418 1 52.4445 28.3626 17.8192 3.69113
501 2 49.3379 30.5862 14.9628 3.35569
68 1 24.9245 28.2912 13.9553 3.33512
69 1 25.5267 30.8039 16.3477 4.5092
70 1 27.6157 30.499 19.0376 1.50359
140 1 29.4006 27.6574 11.3172 4.87721
141 1 31.6053 29.3946 17.1983 1.97543
142 1 32.985 30.933 17.6409 1.39507
212 1 37.2699 27.7134 13.7379 3.60395
213 1 35.945 29.7702 17.9757 3.94522
214 1 38.6257 31.2406 17.5666 4.0099
284 1 27.3679 4.1661 13.8362 1.36977
285 1 26.2739 4.60773 16.0463 4.01989
286 1 42.6062 29.013 18.5406 1.68121
356 1 31.6165 5.59808 14.4327 3.42409
357 1 46.1638 29.0496 15.3017 3.95027
358 1 50.6924 30.7992 21.7453 4.78087
428 1 34.7694 5.89662 16.2392 3.711
429 1 50.7922 30.2725 17.0802 4.83014
430 1 36.7924 5.51748 17.3319 1.94797
443 2 9.58142 6.00151 15.2035 9.99279
444 2 12.5808 7.11788 20.6835 4.06779
515 2 30.4432 31.5122 19.2531 7.96566
516 2 33.5485 32.1006 23.2213 3.35764
587 2 34.0584 29.291 21.7488 1.95752
588 2 25.0625 9.57467 17.779 7.37311
659 2 43.3334 31.2034 21.6349 8.34596
660 2 27.5384 9.7244 22.0593 2.13553
721 2 34.4714 7.03807 23.0493 2.31104
731 2 47.9018 29.4685 20.2814 2.58856
732 2 33.5663 8.54516 19.7052 2.16147
793 2 53.6313 33.2299 23.1976 4.10612
803 2 35.2703 6.13372 20.5437 2.2501
804 2 37.798 6.13447 19.5929 2.94595
11 1 15.3682 6.71033 20.7591 1.46823
455 2 43.9387 11.5315 18.2548 2.49445
456 2 18.0453 6.94467 21.8559 8.40856
12 1 19.3244 9.7436 21.6832 5.21369
23 1 18.975 13.6876 19.6885 3.93918
83 1 20.4399 6.81919 20.5409 2.93749
527 2 20.894 10.3242 19.5584 2.4068
528 2 21.9018 16.2821 20.927 2.54569
84 1 21.7762 7.89946 22.1897 3.43664
95 1 24.2124 16.2415 22.1051 4.50183
155 1 26.3155 8.50177 20.5368 3.44793
599 2 23.9321 9.19586 20.0319 4.00444
600 2 13.8464 1.94924 -0.766497 10.0072
156 1 14.7721 -0.832823 -1.37746 1.51311
167 1 28.8655 12.1121 19.7129 3.92931
671 2 28.6833 9.38474 20.1106 2.87057
227 1 31.1537 8.30975 20.8842 3.27964
228 1 34.1981 10.4195 22.3901 1.75052
239 1 33.6903 12.6158 21.8251 4.00757
672 2 31.257 13.1425 19.3023 1.96281
743 2 31.8253 11.0076 20.0896 2.11049
299 1 36.7237 8.52915 21.9626 2.97535
300 1 39.4614 9.52526 22.8572 3.89718
311 1 38.3026 9.91097 19.14 2.90639
733 2 19.2439 4.86949 -0.825111 4.53216
744 2 37.2809 11.1221 22.9899 9.8111
815 2 39.5001 7.67477 20.8549 8.13173
371 1 41.7621 8.36438 22.4932 4.13014
372 1 42.8539 10.6528 21.3502 7.50904
383 1 44.4099 13.6723 21.1995 1.34099
805 2 25.9126 2.18245 -0.401889 3.05703
816 2 41.0113 14.219 21.7235 2.24036
24 1 22.4629 15.0546 23.3198 4.38811
35 1 20.5217 19.7056 19.6364 3.57365
468 2 18.1575 15.7223 18.6747 4.43616
539 2 19.6294 16.9087 20.7117 2.14583
96 1 27.4962 15.1309 23.0233 4.86591
107 1 28.906 17.6259 22.4576 3.81433
540 2 22.5675 18.0842 21.8191 2.1886
611 2 26.1327 17.592 22.2446 2.29038
612 2 25.4848 13.3167 20.8357 2.16795
168 1 31.024 17.1469 21.4024 3.42625
179 1 30.4466 19.6696 22.0119 4.58282
683 2 30.3438 14.3886 17.2191 3.35553
684 2 32.749 17.2943 19.7175 3.21482
240 1 37.3339 13.3076 23.0218 5.73537
251 1 36.0018 16.7163 21.5086 4.78791
745 2 39.1706 12.8484 20.6056 2.36892
755 2 36.6716 12.007 20.4109 2.71689
756 2 37.1943 19.4673 17.5998 3.11807
312 1 43.0288 16.2461 20.9583 1.42107
323 1 41.0146 16.9101 19.6799 4.34983
817 2 28.8171 7.78661 -0.762148 7.01679
827 2 41.9523 14.2712 19.37 3.87067
828 2 44.2654 16.5567 18.8631 3.81745
384 1 16.5066 14.3612 20.6579 3.15063
395 1 45.971 16.8015 22.2849 2.11388
467 2 16.2006 8.88332 20.499 3.0964
480 2 21.4401 22.972 19.8599 2.51295
36 1 21.7014 20.3868 22.584 4.05319
47 1 23.8558 21.6845 22.6267 4.60645
48 1 11.0875 13.3689 -1.10392 4.45612
551 2 23.9449 19.5799 19.0977 2.12052
552 2 26.3259 20.881 19.8427 3.20708
563 2 23.7815 23.6236 16.3647 2.5697
108 1 28.5888 22.2218 22.2315 4.34806
119 1 25.7572 25.001 17.6034 3.31732
623 2 28.7509 15.1371 19.274 2.22395
120 1 30.917 22.7129 21.787 4.58018
180 1 33.5797 17.7498 22.23 3.21895
191 1 33.9167 21.2467 22.5365 4.75151
624 2 28.2778 18.9542 19.6734 2.22201
635 2 33.9305 24.6959 18.4332 1.73343
695 2 36.6173 19.3631 21.2498 2.45457
192 1 35.2037 23.9747 22.3736 3.52293
252 1 21.9814 8.4299 -1.43776 3.49998
263 1 38.983 20.7503 19.9964 3.98117
696 2 38.167 18.0437 21.5171 3.48356
707 2 35.2378 23.2423 19.9464 2.25913
767 2 41.0544 19.5586 18.2202 1.89658
264 1 41.9638 25.7007 21.579 3.62521
324 1 43.0999 18.2431 22.5615 3.61506
335 1 44.4809 24.8125 22.5712 4.65853
757 2 41.8236 21.1056 21.3778 2.5753
768 2 40.3132 22.1519 18.8801 3.48232
779 2 41.8569 23.1926 19.1626 2.58103
839 2 43.9461 18.4314 20.0534 1.92463
336 1 47.5165 23.6113 23.1721 1.15746
396 1 48.7029 18.2531 22.0121 5.20876
407 1 48.4349 21.1394 23.4448 3.93095
479 2 49.7429 21.6518 18.3345 1.87895
829 2 27.5595 14.6007 -0.958961 3.06635
840 2 44.81 20.84 21.7925 2.0413
851 2 46.9302 20.0808 20.7211 1.9516
408 1 50.691 22.3534 23.1579 4.5002
491 2 20.9075 23.1221 16.2995 2.61447
59 1 26.7552 28.8989 20.0759 1.53027
492 2 23.5881 24.7115 22.2861 2.19532
503 2 52.6789 26.6286 20.539 9.63613
60 1 14.6043 23.1323 0.888925 5.18731
564 2 27.2051 23.6033 19.7385 2.05756
575 2 28.8664 28.1178 19.4052 7.34393
131 1 30.7058 28.5618 21.491 5.82707
132 1 35.687 28.2066 23.3339 1.57727
636 2 36.8934 26.4369 19.0246 2.30048
647 2 36.3867 28.4274 20.6267 2.15643
203 1 37.2972 26.2318 22.3924 4.03353
204 1 23.9191 15.9438 -0.516575 4.19958
708 2 39.7226 24.2006 20.0496 2.28191
719 2 39.5694 27.8956 21.6337 2.30557
275 1 41.5895 26.9941 18.9415 4.48137
276 1 42.6783 29.2091 20.8455 4.62644
769 2 27.2085 12.7259 2.56862 4.1137
780 2 44.1847 27.337 22.5195 2.53052
791 2 43.6588 24.8976 19.8954 2.77007
347 1 46.4282 23.5167 20.5254 2.96429
348 1 48.1075 25.2655 21.436 1.31912
841 2 34.832 16.3654 -1.41192 2.84844
852 2 49.3988 22.0693 20.8731 1.9395
863 2 49.21 28.0519 18.0133 3.02963
419 1 50.8343 24.8401 21.0827 3.50992
420 1 53.3414 27.4427 22.7276 4.89176
504 2 40.6438 5.74212 19.2257 2.23988
71 1 29.0169 30.7644 21.2326 1.42941
72 1 30.2324 32.2428 22.9818 1.23392
143 1 19.6482 21.6436 -1.28298 4.63766
576 2 32.0358 31.0836 21.0545 3.40194
144 1 22.1682 21.5127 -0.767595 3.70749
215 1 39.1466 32.8328 21.5011 4.72887
648 2 36.8556 31.1894 19.8147 3.49211
216 1 42.8896 32.9937 23.107 1.49663
287 1 45.3152 32.679 21.8153 1.53068
720 2 39.8061 29.7972 19.4399 2.07855
288 1 32.2432 24.4993 -1.30908 3.83608
359 1 48.4202 30.9941 22.4642 4.10479
781 2 32.0044 20.1998 -1.30173 2.28818
792 2 47.1365 27.2551 20.1553 2.59722
360 1 52.6849 30.0956 22.959 1.82519
431 1 55.5416 30.2037 21.4196 4.47034
853 2 50.6461 27.3706 20.7651 2.44504
864 2 24.2004 27.3026 19.1896 2.27487
432 1 55.7918 32.6805 22.3136 3.12481
ITEM: TIMESTEP
500
ITEM: NUMBER OF ATOMS
864
ITEM: BOX BOUNDS xy xz yz pp pp pp
-1.9450972000282509e+00 5.9928118474372930e+01 1.5595065179216816e+01
-1.8338988586254070e+00 3.4087812560712578e+01 1.5433033735469905e+01
-1.5967183054369258e+00 2.3605320251269923e+01 8.9102661815861524e+00
ITEM: ATOMS id type x y z f_grace_gamma
433 2 58.3042 32.2444 23.2771 2.42093
434 2 2.26034 1.80093 -1.47719 2.4287
435 2 2.50131 1.50618 0.777364 4.05681
445 2 16.6342 11.7309 20.9048 2.42974
1 1 3.89253 2.89673 0.875825 3.3281
2 1 21.9038 11.5617 23.1191 6.15116
505 2 36.9363 33.107 23.34 4.54028
506 2 6.25462 -0.164919 -0.774606 3.16872
507 2 23.5808 25.3993 4.0082 4.12543
517 2 21.7656 12.7851 20.9572 2.19511
73 1 9.62586 1.96553 1.01152 1.90038
74 1 12.0831 2.86559 0.956042 1.22611
577 2 23.4445 23.2453 -1.1268 3.82882
578 2 9.46477 -0.735591 -0.289431 3.04438
579 2 28.6779 25.8702 2.83802 3.85231
589 2 24.2737 10.8063 22.0103 2.11488
145 1 12.942 0.0869268 0.209107 3.66792
146 1 14.7381 3.02083 1.1669 3.11335
649 2 30.5596 24.7957 1.60236 2.05593
650 2 32.5844 8.74652 22.6321 3.16356
651 2 15.6837 1.03445 -0.221262 2.29493
661 2 30.0339 12.3615 22.398 3.13243
217 1 19.1653 1.85262 0.502943 4.46654
218 1 20.648 1.52381 2.12306 2.11043
722 2 20.1879 -0.0715035 -0.584379 4.33449
723 2 40.2557 27.3069 5.16924 2.79146
289 1 22.5823 1.93786 0.459913 4.60648
290 1 29.1247 2.38982 4.42281 4.51875
794 2 43.1954 24.0337 -0.0821076 2.23235
795 2 26.9706 2.54401 2.03403 2.23974
361 1 29.7568 1.21499 0.594528 5.3928
362 1 31.945 3.6283 -0.183323 4.21602
13 1 34.6207 7.0055 2.16829 3.79269
446 2 20.2124 14.8142 23.278 3.78493
447 2 32.9741 3.68878 2.61179 1.93565
457 2 32.7465 6.14617 -1.22473 1.62697
14 1 6.43597 6.30805 3.00962 2.71747
85 1 10.5647 5.99067 1.30042 3.2311
518 2 9.66303 7.75631 -0.447228 2.12503
519 2 10.8035 4.19434 -0.669074 2.01703
529 2 6.60954 8.92415 3.45682 2.72555
86 1 12.4297 7.33723 2.23921 3.55552
157 1 18.1533 6.59653 -1.30292 4.11427
590 2 16.4932 5.1692 -1.20857 2.36094
591 2 14.9043 6.60632 -0.159305 2.41577
601 2 30.3293 14.9875 22.2234 1.93713
158 1 20.7496 7.97365 2.07355 3.56117
229 1 21.4066 5.00708 1.23238 4.43008
662 2 17.1945 2.63677 -0.455912 2.50947
663 2 16.6079 3.0594 3.85577 3.16695
673 2 17.5754 6.63029 1.69356 2.42185
230 1 22.9865 8.04505 1.41329 4.21751
301 1 43.3801 13.9201 23.3476 3.98082
734 2 24.7342 4.25951 1.12265 2.58085
735 2 29.2802 4.72412 0.516704 2.48655
302 1 26.8543 6.87679 0.505769 4.82247
806 2 45.6378 10.4203 23.1362 2.93166
807 2 30.9001 4.38038 3.05874 2.29246
373 1 45.6816 14.1564 23.3866 1.30223
374 1 32.1263 6.92975 2.20966 4.34856
458 2 5.43783 8.19413 -0.260941 2.48961
25 1 37.2273 12.7544 1.4404 3.80983
26 1 13.0464 12.4092 2.27645 4.34787
470 2 39.1344 14.1167 1.88162 3.16671
471 2 38.9085 13.9645 4.17977 2.25685
530 2 6.12705 10.5839 0.0519921 2.47764
531 2 10.2656 9.03695 2.24047 3.4764
541 2 23.8639 18.5777 23.1604 2.58905
97 1 13.2247 9.95094 -0.118849 4.52683
98 1 15.7613 14.5905 3.01087 4.25623
542 2 13.5666 15.1794 2.34571 2.35833
543 2 12.0864 14.6195 3.97033 2.82515
602 2 20.3765 7.32863 -0.572362 7.44785
603 2 16.4297 12.1078 2.10937 2.48761
613 2 14.4262 12.6277 -0.688597 2.62797
169 1 17.8724 13.5614 -0.17973 3.52814
170 1 20.5421 13.4715 1.20015 4.09616
614 2 18.5275 16.4211 -0.886902 9.57612
615 2 22.3895 16.5139 2.21629 2.94025
674 2 15.717 8.89231 -0.0795305 1.97999
675 2 18.1607 9.88583 4.77412 2.61977
685 2 19.2489 8.69461 0.504377 3.80363
241 1 24.2739 10.6294 0.641918 3.89087
242 1 26.739 10.0193 0.599876 4.43483
686 2 22.965 11.5444 -1.37955 2.60095
687 2 26.9443 13.1676 -0.338426 3.72509
746 2 41.6635 18.0888 22.0447 4.21277
747 2 24.2108 6.68628 -0.872736 2.39956
313 1 29.8705 10.6792 -1.22011 4.5703
758 2 29.6337 14.5576 7.21409 2.03693
759 2 31.7465 14.6053 5.08364 2.33459
314 1 29.4171 12.3088 3.12467 5.08539
385 1 35.1147 12.0054 -0.226067 1.98426
818 2 33.0163 8.64406 0.591507 2.79236
819 2 32.8445 10.0389 3.23688 3.27575
830 2 30.5225 14.0452 -0.375939 2.37553
831 2 33.7507 14.568 6.84382 9.82017
386 1 33.5863 13.9317 3.33404 6.39255
459 2 8.14889 10.5435 5.34034 2.94681
469 2 35.9727 17.3492 1.44857 4.48573
37 1 8.81021 12.0141 -0.0470732 4.35668
482 2 41.8481 18.9327 -0.0343259 3.59179
38 1 10.3173 14.2333 1.7988 4.03006
109 1 16.2178 15.3329 0.340795 4.41484
553 2 12.6947 16.5725 0.32769 3.42779
554 2 16.3277 18.5734 0.598586 3.61719
555 2 17.665 16.8293 6.62163 2.68036
110 1 17.52 16.83 2.33628 4.16049
181 1 21.3324 15.1463 -0.551989 4.05811
625 2 33.1223 26.4466 20.5926 3.25721
626 2 22.5785 17.801 0.700745 2.81343
627 2 20.8058 19.2326 2.05336 2.67683
182 1 23.8633 13.996 1.75114 5.54195
253 1 26.4651 15.9887 3.98798 4.97538
697 2 37.8273 22.259 21.5228 1.85556
698 2 27.96 17.5766 0.816636 3.57778
699 2 25.3949 18.4016 5.81184 2.40421
254 1 30.4437 14.3358 2.4192 3.99137
325 1 33.3243 15.7263 1.01237 3.00304
326 1 31.9999 17.8142 -0.447832 1.34583
770 2 46.0803 29.0491 22.1941 2.73516
771 2 28.9732 17.2831 2.18002 3.71037
397 1 31.6969 17.1051 2.54223 3.45044
398 1 39.6949 16.6221 4.10977 3.78015
481 2 10.0543 15.3526 -1.41801 2.84
842 2 26.456 28.0448 22.9867 2.64492
843 2 37.1942 17.9832 4.14216 4.8531
483 2 11.4617 16.8517 3.37562 2.53263
493 2 13.9999 18.2776 -1.58981 3.89122
49 1 13.3033 20.404 0.835963 4.69567
50 1 15.9899 20.8042 1.57456 4.21941
61 1 15.8393 8.12074 23.3844 3.67084
494 2 42.0776 21.466 -1.06147 2.18139
495 2 44.3809 24.4944 6.80241 2.7049
565 2 17.1366 20.8438 -0.589673 6.9459
121 1 18.0716 18.1504 -1.61466 5.26052
122 1 18.7474 19.294 0.485717 1.53582
133 1 22.6472 23.6763 1.25497 3.68443
566 2 19.4742 23.1786 1.33074 3.95655
567 2 17.7773 23.1942 2.76631 8.17792
637 2 25.183 20.0162 -0.804496 2.13322
193 1 24.7316 18.407 1.4339 3.92791
194 1 28.0522 21.6764 -0.789519 3.57071
205 1 27.9414 24.1963 0.559153 3.47994
638 2 22.7941 18.1829 5.58749 3.08739
639 2 24.3784 21.7381 0.644121 2.41137
709 2 41.6366 31.3213 22.2028 2.38101
265 1 29.735 19.9467 0.408095 1.54097
710 2 30.5576 22.5943 -0.430528 6.93861
711 2 27.0117 22.409 3.15742 2.50144
266 1 31.0698 19.4116 1.91021 1.41769
277 1 32.8052 23.6561 2.02389 2.95554
337 1 33.8835 19.085 0.987887 1.49472
782 2 37.3408 23.9076 0.259372 3.11116
783 2 32.6642 20.9554 1.15434 6.60404
338 1 36.2401 19.2487 0.86735 1.96553
349 1 36.2331 21.2985 0.331167 1.8159
409 1 38.537 18.1932 0.58538 5.26199
854 2 39.7417 20.2782 -0.977932 10.8179
855 2 40.4625 23.4877 5.07519 2.67121
410 1 42.8123 22.4085 2.05721 4.73116
421 1 39.3417 22.3259 0.0556023 3.52265
62 1 3.19227 -1.10237 -0.86257 4.91783
134 1 24.336 25.9192 2.19114 3.46038
206 1 14.7569 1.04788 3.33415 4.26414
278 1 35.7312 26.017 1.7007 3.81078
350 1 22.4864 -0.942292 0.445164 4.08488
422 1 44.3466 25.5937 2.52131 4.14937
3 1 6.08623 1.8624 1.88319 3.9008
436 2 6.18011 0.666285 4.68014 2.71803
437 2 18.8098 27.1188 5.14328 2.87776
438 2 20.7139 28.0195 7.25812 2.27546
75 1 9.8837 3.12683 3.00115 1.2647
508 2 8.29893 4.66218 1.74446 3.57405
509 2 24.4545 26.2495 9.60201 5.36817
510 2 8.51103 1.04668 6.15739 2.27156
147 1 13.144 4.59135 2.57693 1.59725
580 2 12.2246 1.56495 3.49401 7.3756
581 2 15.5882 1.32012 7.34347 2.52947
582 2 16.0286 2.57962 10.0157 9.64038
219 1 22.2894 3.57556 4.41053 4.08236
652 2 38.0152 26.0143 4.06231 3.17614
653 2 19.4167 3.41182 5.74851 2.4046
654 2 24.8873 3.1912 6.65311 1.75158
291 1 26.8441 1.841 5.32236 3.53256
724 2 22.2726 1.64774 7.04639 2.01782
725 2 40.4196 24.4145 7.99712 2.24863
726 2 27.9591 4.0481 7.47531 2.20075
796 2 30.7793 0.768127 2.67459 4.31813
797 2 42.3127 27.404 8.59456 2.25891
363 1 3.81604 0.551576 3.2171 3.18012
798 2 29.0158 2.32001 7.6124 2.94603
448 2 6.63734 4.68342 0.40745 2.05761
449 2 4.70954 4.64008 2.67422 4.16984
4 1 7.51912 2.98463 3.87186 3.64663
15 1 9.85089 4.83712 4.97596 3.62286
450 2 9.63201 6.29819 7.11148 2.66791
520 2 11.8966 7.66913 5.84198 3.46785
521 2 26.7299 26.7122 3.12878 4.04707
76 1 12.7571 3.68822 5.2045 3.46261
87 1 15.1116 6.02746 3.669 4.84419
522 2 11.1777 3.78318 7.49376 2.08418
592 2 18.0439 5.10617 6.77844 2.91254
593 2 17.5385 1.33913 6.56067 3.17837
148 1 20.3632 5.08872 3.43868 3.67296
159 1 19.3679 7.82818 4.66042 4.12093
594 2 22.1423 10.1019 6.12625 2.40656
664 2 19.1694 11.2776 2.35144 2.57016
665 2 20.5273 8.0686 9.0257 3.41734
220 1 24.3577 2.57493 3.69248 3.32642
231 1 24.4366 5.73971 2.98207 5.03835
666 2 22.8918 5.07377 6.15403 2.41581
736 2 28.1267 5.04806 2.2992 3.16022
737 2 26.0599 6.13258 6.22943 2.69193
292 1 29.9764 3.83767 9.23751 4.22586
303 1 30.2746 8.00853 3.2316 6.03699
738 2 29.0406 7.36598 7.19044 2.24048
364 1 4.62401 3.79446 5.10191 8.06338
375 1 35.3087 7.94484 4.81699 4.35269
808 2 31.3649 2.90973 5.95783 3.89775
809 2 29.5901 5.66133 7.51658 3.3183
810 2 7.92993 4.29976 6.39637 2.07405
16 1 9.58476 9.01384 6.39325 4.45808
27 1 12.9015 11.4382 6.80069 4.83992
460 2 10.5067 12.3128 4.83307 2.00225
462 2 11.5796 12.6311 8.85996 2.5553
28 1 13.0802 14.3367 6.87907 3.66693
88 1 15.6961 8.55414 4.01303 4.32723
99 1 13.8439 13.0633 4.87058 2.15421
532 2 12.9627 9.57031 4.1156 2.39875
533 2 14.1257 6.90363 9.11619 2.8023
534 2 18.5246 9.41101 6.60777 4.57435
100 1 17.1627 13.3172 8.3276 4.25763
160 1 20.1786 11.2394 5.67026 3.4772
171 1 21.1828 13.2728 3.59767 3.31007
604 2 18.2956 13.5132 2.7675 2.72029
605 2 21.3675 11.4328 8.28737 2.75569
606 2 18.9653 15.1565 7.76542 2.98612
172 1 22.6159 13.1062 6.52818 4.51277
232 1 27.9287 11.8039 4.95723 4.81349
243 1 24.4125 10.8587 5.74459 4.92925
676 2 22.1548 8.23864 4.0225 3.67563
677 2 26.5954 8.33403 7.26105 2.31374
678 2 25.4829 11.0745 9.59954 2.17953
244 1 31.1342 9.35107 4.61743 2.09962
748 2 28.7859 8.80939 1.59472 2.19162
749 2 28.4785 8.28044 4.677 3.31826
304 1 30.7729 9.4211 7.03168 4.58292
315 1 34.4382 10.4052 5.30833 4.07934
316 1 36.4317 12.6282 4.82882 4.48378
750 2 30.8359 12.2915 5.8366 2.55015
820 2 35.7335 10.5856 2.33603 2.44171
821 2 33.4226 8.03423 6.69146 3.56698
376 1 8.27898 7.02512 4.98295 4.11504
387 1 37.0251 8.99268 6.31143 4.95241
388 1 38.666 12.5867 6.40181 3.79307
461 2 15.1684 10.3849 5.69163 1.74916
822 2 9.42223 8.39257 9.8646 2.53888
472 2 41.6949 15.3209 6.07344 1.93345
39 1 14.5485 18.6401 7.4934 1.84209
40 1 16.9421 19.4155 5.69371 1.55027
474 2 43.0608 19.1043 6.99636 2.29579
544 2 18.2133 12.8233 5.73554 2.07713
545 2 18.5193 17.4479 9.69505 3.00102
111 1 18.5376 18.6476 4.19268 1.60131
112 1 23.991 17.0618 7.80314 4.23958
546 2 21.481 14.5801 9.08603 2.32227
616 2 23.6544 12.5047 3.73858 2.45469
617 2 18.4913 14.9537 5.10677 2.12934
183 1 23.3248 15.9073 5.79536 4.3914
184 1 27.9639 18.5086 3.87037 3.45127
618 2 21.3814 12.1727 10.8489 2.08855
688 2 27.798 14.3737 4.70071 2.40172
689 2 25.7281 15.5421 7.28681 2.52456
255 1 29.0463 17.2237 6.12488 3.30747
690 2 27.0906 15.1747 9.62574 1.65626
256 1 31.6889 18.0345 5.31674 3.51382
327 1 33.3597 16.5689 5.99048 1.86006
760 2 31.4022 12.6746 9.35647 3.3705
761 2 29.1717 12.0318 9.63203 3.57357
762 2 36.1168 16.0058 8.65194 2.02476
328 1 35.3509 19.1838 6.32646 3.91922
399 1 38.8328 18.9463 4.3031 6.05518
832 2 37.0123 15.3485 3.73614 2.38952
833 2 35.3246 16.3502 5.7357 3.26698
834 2 39.9935 17.5612 6.1855 2.92406
400 1 13.4362 18.3954 4.72405 4.45896
473 2 40.817 15.8212 8.68394 2.21324
51 1 17.4691 21.2489 3.81003 1.34449
484 2 15.2642 20.0307 3.98878 3.95013
486 2 45.7497 23.5496 8.27961 2.19447
496 2 42.72 24.5538 3.80907 4.40162
52 1 21.0066 20.0406 4.65898 3.59545
123 1 20.4432 22.0216 3.33316 3.38186
556 2 18.416 21.6389 1.29063 7.22681
557 2 21.2329 16.4458 4.5278 2.52186
558 2 26.0506 22.4563 7.83671 2.58845
568 2 21.4849 23.9069 5.15652 2.03353
569 2 23.3937 22.225 8.20821 2.72214
124 1 24.316 23.8199 6.36552 3.18407
195 1 25.4572 20.5114 3.48321 4.88103
628 2 22.9181 21.4737 4.51346 2.78407
629 2 21.9133 18.6258 7.36499 2.22936
630 2 30.63 17.2735 8.12313 3.77599
640 2 29.5925 23.5372 3.50106 3.07989
641 2 31.2857 22.5271 7.09563 2.27146
196 1 26.5633 19.9619 6.969 4.58105
700 2 27.0534 20.2171 0.828154 2.27593
701 2 29.5901 15.0236 9.64027 2.49001
267 1 29.3203 20.6895 5.11932 4.53941
268 1 34.5382 22.9998 6.86177 3.05072
702 2 32.3861 20.5759 7.52497 7.00478
712 2 35.0892 21.5574 1.95902 6.65713
713 2 30.8853 21.8174 2.41067 2.71406
772 2 33.7999 19.543 3.67068 3.83544
773 2 36.1495 18.4282 8.61491 3.21186
339 1 35.0473 21.5484 4.98035 1.26819
340 1 37.6374 21.8158 4.53551 3.38466
774 2 37.5711 22.0739 6.90939 2.64373
784 2 38.9813 23.6292 2.33671 2.04505
785 2 36.0361 26.9642 6.38687 2.76742
844 2 39.2675 20.7548 1.94646 2.64072
845 2 40.8607 19.6445 8.03573 2.59174
411 1 43.0496 20.1344 3.30629 4.43361
412 1 16.1479 23.1835 5.40508 4.41338
485 2 44.5839 22.1982 4.7707 2.26195
846 2 42.7782 20.9873 5.18619 2.6815
856 2 25.8011 -0.453241 0.348296 3.24521
857 2 39.4195 21.0057 6.76414 2.13146
497 2 19.0486 21.3051 5.49729 8.31534
63 1 20.5472 25.2793 2.91532 3.90533
64 1 26.4353 25.1954 6.79378 1.37523
498 2 18.7783 24.1182 4.36921 6.30534
135 1 25.9671 24.3718 3.94615 3.51035
136 1 28.6575 27.1456 5.14434 4.0472
570 2 29.2036 24.9597 4.76788 3.58189
207 1 32.7337 22.6139 4.42706 1.32688
642 2 29.2858 25.4673 6.75266 2.25222
208 1 34.8008 24.627 3.5009 1.70203
279 1 36.5289 23.0092 2.85371 1.45261
714 2 34.1209 24.6841 9.07285 2.76547
280 1 37.1614 26.5576 9.09933 3.67497
351 1 38.3135 25.5892 6.17329 3.14871
786 2 39.2053 26.2487 10.9938 9.51631
352 1 42.2912 26.2666 4.6801 4.47547
423 1 45.4491 27.0414 4.64261 4.73579
858 2 47.3852 24.4563 9.73351 2.6298
424 1 17.0053 25.393 3.85835 3.70581
439 2 47.4456 28.7289 12.8194 3.48041
511 2 9.25424 1.8671 8.33189 3.58376
583 2 31.6609 25.4073 8.92371 3.08624
655 2 20.6035 3.17318 9.10188 1.97199
727 2 27.3844 2.73785 10.8161 8.51545
799 2 46.5338 27.8364 10.906 3.26922
5 1 6.83851 3.38161 9.13426 7.33399
6 1 13.7408 5.55863 11.5011 4.52698
7 1 12.0468 5.20577 15.377 1.78933
440 2 21.4108 26.487 11.933 4.43521
451 2 10.0358 4.08213 10.4126 7.26068
77 1 11.0208 1.94012 5.78709 2.99344
78 1 14.7212 3.80511 8.12012 3.49744
79 1 28.6692 29.3155 14.1458 3.95219
512 2 16.714 4.78084 12.0382 2.64287
523 2 16.3601 8.8328 12.5077 2.59966
149 1 16.432 4.92435 9.52031 4.51715
150 1 23.503 3.54044 9.40241 4.50938
151 1 18.4608 4.87551 14.4863 4.13803
584 2 19.1347 3.93669 11.982 3.26332
595 2 14.2206 4.70119 14.0464 2.60175
221 1 23.4769 6.59235 9.71753 6.32257
222 1 26.3049 6.29405 9.08564 4.32677
223 1 27.0639 5.335 11.3974 1.46938
656 2 39.7496 30.2787 13.8356 2.65432
667 2 18.5526 7.05061 11.1127 2.41466
293 1 29.3153 5.90703 10.2249 1.54129
728 2 46.2349 30.2529 12.8148 4.95903
739 2 31.2581 12.1993 12.1434 2.15052
294 1 33.8366 7.32172 9.37832 5.37079
295 1 29.2347 5.94218 13.3424 3.14071
365 1 32.3764 5.23343 10.7422 6.00176
800 2 31.7464 7.42095 12.107 2.31026
811 2 36.2645 5.6798 11.8791 5.535
366 1 8.49011 4.68367 9.86836 3.09576
367 1 37.5883 6.23698 14.4327 5.64601
17 1 12.0685 6.98011 10.9366 2.40938
452 2 10.7409 7.90872 13.9327 9.36771
463 2 11.1786 8.81416 12.4968 7.35127
18 1 12.9731 9.29073 9.98862 4.42213
19 1 13.6549 10.2708 12.3223 4.16857
29 1 14.8208 15.5912 8.31182 3.31717
89 1 17.695 7.25361 7.83281 4.58579
464 2 41.5127 14.084 10.8848 2.75715
524 2 15.6427 10.1989 8.00112 2.44343
535 2 14.8635 12.4202 7.17495 4.16766
90 1 18.4438 9.60529 9.86211 4.26721
91 1 18.5359 9.68369 13.0377 4.7369
101 1 17.2952 11.5005 12.0282 1.51892
161 1 23.2588 9.54289 11.4061 3.60928
536 2 20.2722 9.35099 16.0558 2.82008
596 2 20.3604 11.8117 12.9266 2.48292
607 2 24.3076 14.9521 12.8811 2.82428
162 1 24.095 11.7031 12.8278 4.38068
163 1 22.7367 9.17728 14.341 4.22259
173 1 23.3396 13.0494 9.24794 3.91694
233 1 23.7204 7.67525 5.44616 4.40726
608 2 22.8634 11.1377 17.1527 10.179
668 2 26.4679 9.00295 9.86303 2.44949
679 2 28.4559 8.21701 10.6448 3.76803
234 1 27.3153 12.2435 7.26511 3.59508
235 1 28.6693 12.4005 13.9747 3.90658
245 1 28.1828 10.3989 11.7481 3.27739
680 2 25.207 14.1069 14.3615 2.52537
305 1 30.9036 7.58935 9.37394 1.50255
306 1 32.3605 9.61365 8.70668 1.62721
307 1 34.38 10.2017 12.5485 1.3003
317 1 34.6677 10.0721 8.07768 1.42155
740 2 34.8326 11.7582 9.80428 8.78236
751 2 28.0356 10.3389 8.79545 2.42201
752 2 36.7436 13.4446 7.54988 3.1439
377 1 35.2015 9.44161 10.2927 1.29114
378 1 38.3626 10.5855 9.53026 5.7237
379 1 38.7729 10.5581 13.0136 4.97839
389 1 39.9684 12.6114 9.07245 4.10331
812 2 36.7577 12.4319 11.6305 3.01912
823 2 7.21355 6.17129 9.31038 5.19658
824 2 41.1044 10.6939 10.495 2.74297
30 1 17.454 14.2636 11.5648 3.98946
31 1 15.1616 13.3216 12.3321 4.61507
41 1 16.5291 20.3972 7.94354 4.07758
476 2 13.55 17.1872 9.21171 4.1379
102 1 18.9342 11.9801 10.2964 1.91787
103 1 20.4615 15.2002 12.3581 4.42875
113 1 21.4364 19.8969 10.1121 1.72844
547 2 14.4184 17.3824 11.2392 2.77694
548 2 21.7356 16.7621 10.3745 2.62769
174 1 24.3879 15.1059 10.2634 2.9589
175 1 26.7163 12.9273 11.5395 4.58542
185 1 27.8497 18.099 8.35932 3.42807
619 2 25.8156 17.4986 10.0421 2.53398
620 2 26.3109 16.4147 12.1376 2.51085
691 2 32.5198 14.8657 12.428 2.35038
246 1 34.7231 13.4367 8.54548 4.26376
247 1 31.5755 12.8466 15.2177 4.16256
257 1 32.7641 16.1924 8.49625 4.3823
692 2 33.7745 15.835 10.7866 2.18964
763 2 36.1122 14.2538 11.9033 2.33828
318 1 38.5488 14.3082 10.2849 3.87403
319 1 38.4057 14.0977 13.6334 3.39497
329 1 39.1618 19.3373 10.726 1.65069
764 2 36.7282 17.5812 11.426 2.42212
835 2 40.6176 16.2315 11.7805 1.96019
390 1 38.0951 18.1485 8.10727 5.07722
391 1 42.0528 13.081 14.3325 3.80912
401 1 41.3912 18.858 10.4395 4.34332
475 2 42.6583 18.8535 14.6412 2.13363
836 2 41.0359 18.0771 15.873 2.80416
42 1 19.404 21.0361 9.40762 4.4979
43 1 20.045 19.5911 11.9744 3.97362
53 1 21.5008 21.3858 7.24065 3.91646
54 1 19.1081 25.5264 8.13422 4.47934
55 1 22.2441 23.8151 12.1212 5.36991
488 2 19.4608 24.0916 10.2223 1.83651
559 2 19.3495 22.4285 12.2763 2.28362
114 1 23.6297 19.7119 12.0316 4.88609
115 1 24.6561 20.6827 14.0413 5.16322
125 1 28.7076 22.6999 6.91864 2.68273
126 1 26.1207 23.2783 10.5018 3.61074
127 1 28.428 22.7577 12.9346 3.65385
560 2 23.7843 22.6436 11.238 11.0819
631 2 27.2964 20.6957 11.6794 2.81496
186 1 28.1729 17.3502 11.6051 3.59957
187 1 29.7896 19.7595 12.9613 3.74745
197 1 31.5213 21.4066 9.39938 4.34602
632 2 28.5042 21.2968 9.85038 2.47915
198 1 28.6411 24.3695 9.59728 4.02709
199 1 31.0562 22.4833 11.4463 3.50254
258 1 33.0154 18.5949 8.23417 3.98331
259 1 34.246 18.0906 12.7658 5.35799
269 1 34.1651 20.7868 9.26287 1.12887
703 2 32.1844 18.979 10.6751 2.45762
704 2 32.1911 19.9606 13.2597 2.74483
270 1 35.7007 20.4663 11.2116 4.57163
271 1 37.3387 23.1322 12.5936 1.65673
330 1 39.9283 21.2829 9.8086 4.84093
331 1 39.8815 18.4242 13.9697 4.71609
341 1 36.5439 24.4658 7.32355 4.26164
775 2 36.6517 18.9897 14.4282 2.41925
776 2 40.9479 20.8799 13.2228 2.18584
342 1 39.6477 24.3163 10.3483 3.98397
343 1 39.6579 23.8102 12.9787 2.06586
402 1 44.5756 19.6191 9.55647 3.75599
403 1 45.441 19.3388 14.61 4.78258
413 1 42.8545 21.7655 8.67689 4.33416
847 2 43.7305 22.5299 11.1285 2.57476
848 2 43.8147 26.9149 13.4649 2.43044
414 1 18.0117 22.6981 8.33005 4.02051
415 1 18.4596 18.3162 14.8333 5.40154
487 2 46.7313 20.4067 11.551 3.23183
65 1 22.566 25.6784 6.55545 3.21859
500 2 48.9011 28.2267 8.57501 4.08538
66 1 23.1005 27.87 9.79561 4.69125
67 1 22.465 27.5448 15.9568 4.58147
137 1 27.1765 26.3019 8.74647 4.01275
571 2 25.6363 27.4924 12.137 3.13445
572 2 32.548 29.2983 12.9287 3.07728
138 1 27.9341 29.0429 9.54865 3.58508
139 1 27.2412 28.8287 12.1422 4.1567
643 2 29.28 25.7583 13.4651 2.8029
209 1 33.3259 25.6332 5.24188 4.40466
210 1 18.0789 3.13768 8.03909 4.12889
211 1 33.4166 28.7168 10.708 4.4949
644 2 32.0896 25.3404 11.6264 2.80547
715 2 33.5852 21.8832 11.1737 7.12666
281 1 34.1793 26.9853 7.99434 3.80089
282 1 25.4435 2.18567 9.56394 3.59416
283 1 39.0729 28.4927 11.581 3.78651
716 2 36.0235 26.7794 11.8795 2.07062
787 2 37.1 23.665 9.90179 2.31086
353 1 42.5736 24.3291 10.0876 4.07356
354 1 43.9211 28.0123 10.8166 3.92559
355 1 41.3967 28.3553 12.7176 3.75554
788 2 41.55 25.4273 12.4226 2.45564
859 2 46.7112 23.7751 12.703 2.37743
425 1 47.7971 25.7628 6.78903 3.96638
426 1 46.1861 26.7605 8.95858 4.12385
427 1 48.9497 28.7021 16.0351 3.82128
499 2 49.149 26.7121 12.7169 3.78644
860 2 44.5148 25.0376 11.7195 1.92958
441 2 54.1532 30.8884 16.1915 3.47514
442 2 10.0987 4.85443 13.8202 2.9299
8 1 13.2168 7.12994 14.3567 3.41786
9 1 12.0063 6.45033 18.0254 1.34028
513 2 15.6782 5.80053 17.2649 3.13918
514 2 16.6757 7.12936 14.2032 2.30629
80 1 18.4629 6.84328 17.1974 4.15241
81 1 17.0301 6.58342 19.0253 1.71603
585 2 32.1901 30.3933 15.063 2.34769
586 2 34.6028 30.8547 20.5184 2.15239
152 1 24.2988 7.4155 12.9063 3.9442
153 1 23.1773 7.11738 16.6304 1.72284
657 2 20.9057 4.68042 16.4573 4.85189
658 2 25.2851 6.11752 18.6848 2.63168
224 1 25.1843 8.30438 15.7073 3.15184
225 1 43.9431 31.8854 19.5613 4.74233
729 2 44.4186 31.1386 17.1176 2.73024
296 1 32.622 8.24712 15.7279 1.54365
297 1 34.7965 9.97276 14.9318 1.44511
730 2 30.752 8.10856 18.6568 2.80498
801 2 47.9799 31.636 16.906 2.4231
368 1 9.70244 6.975 11.9083 4.14312
369 1 39.4324 7.50165 17.6587 5.43473
802 2 35.8041 8.73474 17.0667 2.49827
453 2 39.3137 8.82451 14.312 2.58703
10 1 14.3501 7.99595 18.6066 3.21159
20 1 16.7356 11.6089 14.2975 1.45024
21 1 14.4505 9.47707 15.0144 2.90607
454 2 11.6241 8.53062 16.1505 3.78227
525 2 17.0473 9.18179 15.6861 2.11689
22 1 17.1486 12.8385 16.6005 4.89867
82 1 22.2233 6.4355 19.3363 1.50879
92 1 22.953 9.67734 18.6231 4.6032
93 1 21.7277 12.9273 17.9464 4.82006
526 2 18.9428 8.2946 19.5834 2.67688
537 2 20.3191 13.6058 15.3188 3.2871
597 2 20.2749 6.47237 15.7709 2.96274
94 1 24.0596 11.3431 19.3886 2.23003
154 1 28.1204 7.27803 17.737 3.98312
164 1 26.4216 9.59748 13.586 4.60756
165 1 26.5491 10.9978 19.4928 4.40493
598 2 25.0498 11.896 16.3475 2.60281
609 2 24.3975 14.2202 19.0392 1.86136
669 2 27.6922 7.80675 14.6819 1.98249
166 1 28.4731 13.2475 16.6817 4.01833
670 2 27.9923 10.1459 16.7391 2.73752
681 2 33.1086 13.5749 16.4533 10.4645
226 1 46.9311 31.4928 20.6029 3.7223
236 1 32.3703 9.80954 13.8533 1.4565
237 1 30.8223 9.9418 16.2503 3.96787
238 1 34.0366 13.2177 19.2289 4.39802
741 2 30.1953 8.63509 14.204 4.09582
742 2 34.2587 13.0158 12.5489 2.59616
753 2 38.7744 12.8844 16.8816 2.78927
298 1 35.6666 8.65823 20.051 4.11166
308 1 36.6998 11.0631 14.1405 1.57473
309 1 34.179 11.6213 16.7713 4.61863
310 1 41.0291 11.6298 18.9623 4.26277
813 2 35.5258 8.02022 12.8073 2.86271
814 2 37.7207 9.62172 16.2588 2.4987
825 2 39.7301 11.8676 14.871 2.71468
370 1 41.157 8.89965 18.9459 1.47366
380 1 11.9126 10.6775 14.4032 1.47553
381 1 42.1975 11.0154 16.7115 3.9586
382 1 45.7684 14.0005 18.2039 4.12192
465 2 14.1377 11.8937 14.5647 4.01452
466 2 16.3333 9.16255 18.8595 3.10187
32 1 17.534 17.7013 11.7544 5.08699
33 1 19.6841 18.174 17.6794 4.47203
34 1 22.4331 18.4818 16.958 4.76705
538 2 21.2634 15.2493 18.7039 1.89399
549 2 20.6776 16.7688 14.0495 2.73678
104 1 22.6331 14.6949 14.6191 4.89175
105 1 25.2212 16.5579 19.9418 3.97006
106 1 26.1548 17.7856 17.6407 5.0068
610 2 24.8265 15.6298 15.8906 2.60812
621 2 28.7058 18.0183 14.4205 4.8038
176 1 29.4012 14.7873 13.9935 2.99687
177 1 28.6066 16.8328 16.3681 3.50667
178 1 31.2254 17.5374 17.6526 3.56287
248 1 33.7312 15.5419 14.7563 1.67723
249 1 33.0657 15.1417 17.3822 1.76499
682 2 31.3885 16.0846 14.7586 8.05668
693 2 31.2385 17.5767 12.3677 1.75035
250 1 36.1183 15.929 19.1675 4.2781
320 1 40.1593 15.2556 14.8998 3.54456
321 1 35.0933 15.2978 16.191 1.84565
754 2 37.7564 14.6085 18.1955 3.33712
765 2 34.5055 18.2829 17.6014 2.53386
322 1 42.9202 15.5611 17.7961 3.46069
392 1 13.5063 15.2582 11.5427 4.70845
393 1 16.0326 15.3324 16.3662 3.87398
826 2 41.0897 13.9252 16.9005 3.06058
837 2 43.9131 16.1321 15.3106 2.48259
394 1 46.8212 16.8936 19.4386 4.12045
477 2 43.7158 20.3575 12.4392 2.14366
44 1 22.165 21.5267 12.778 1.96096
45 1 22.9861 21.2976 17.1756 3.99487
478 2 19.7789 20.3653 16.1255 2.7139
490 2 21.9279 25.6538 14.8713 3.30175
46 1 25.1397 22.8213 19.5514 4.07802
116 1 27.7827 20.8177 14.623 3.68444
117 1 25.8705 21.0128 17.3973 4.00374
550 2 23.6901 17.0044 14.4119 2.89632
561 2 24.3985 23.5009 12.447 9.31098
562 2 29.2198 23.9542 17.996 3.33492
118 1 30.4373 25.6019 19.8583 4.30334
622 2 26.886 16.9658 14.9453 2.65774
633 2 29.9549 21.5127 15.0149 2.82799
188 1 31.6622 18.7207 15.4467 3.93704
189 1 29.9274 19.8192 17.8424 5.70427
190 1 33.3377 22.2413 20.1896 3.86087
634 2 32.0826 22.4553 17.7468 3.59021
694 2 33.7071 21.1311 17.4352 3.63155
705 2 33.4904 22.424 13.7373 3.56528
260 1 38.0613 20.6037 12.4243 1.30337
261 1 37.1428 16.4858 14.4466 4.79275
262 1 37.3476 23.5563 18.8637 3.56122
706 2 35.2948 20.8831 19.8434 3.00938
766 2 39.8003 18.3111 17.8148 2.82229
777 2 37.4213 23.9342 15.8667 2.66213
332 1 42.994 22.2725 14.5459 4.19944
333 1 44.7678 20.7924 16.2243 1.93654
334 1 44.6314 22.0713 19.4993 4.74001
778 2 38.5215 21.0288 15.3673 1.98172
838 2 45.7966 18.4039 16.7847 5.42689
849 2 45.9966 22.6921 16.284 7.01254
404 1 15.7358 16.8504 13.9741 3.07996
405 1 47.0876 20.5401 16.5577 2.3177
406 1 48.3249 22.3615 15.534 4.38099
489 2 48.6623 24.3857 14.0724 3.52582
850 2 46.2219 23.8016 18.3443 4.55475
56 1 23.2788 25.8131 13.1829 5.55932
57 1 23.1557 24.7001 19.8794 4.91062
58 1 26.6155 26.3511 19.804 4.10879
502 2 26.9095 27.5472 15.1548 2.40429
573 2 26.299 24.3806 13.0979 3.05222
128 1 30.3555 26.2904 16.7635 4.66349
129 1 28.1374 26.44 17.1898 3.9579
574 2 27.8831 30.3608 16.4055 10.2925
130 1 31.9661 26.9552 18.6829 1.73343
200 1 34.3987 24.1106 11.56 4.2203
201 1 33.9891 26.8401 16.0664 4.26226
645 2 32.898 26.3761 13.5509 2.73853
646 2 34.4854 27.8675 18.642 2.89393
202 1 35.417 29.9024 14.4917 4.37268
272 1 38.1241 25.601 13.9647 4.12334
273 1 39.4505 24.3418 17.4211 5.08616
717 2 35.4851 25.6742 13.8554 1.64118
718 2 39.2249 27.1961 16.8191 2.32659
274 1 41.5476 25.5848 16.8816 2.12397
344 1 42.8673 29.579 15.6907 1.59064
345 1 43.7507 24.3806 16.2447 4.66399
789 2 41.7928 25.4284 14.6087 2.42725
790 2 46.7259 29.2193 17.9036 2.80716
346 1 47.9808 26.5541 17.2358 4.01085
416 1 46.5092 24.7043 15.0733 4.60966
417 1 48.977 25.002 18.8108 4.2057
861 2 46.6178 26.4835 12.7342 3.014
862 2 21.8966 25.2314 18.1706 2.856
418 1 52.7773 29.2513 17.6468 5.06234
501 2 32.9138 3.99145 14.6787 3.40116
68 1 24.8331 28.8362 14.1236 5.00605
69 1 25.7569 31.2326 16.4076 4.28064
70 1 27.8334 31.6127 18.9419 1.30197
140 1 29.2333 27.3925 11.2826 4.25123
141 1 31.7476 28.9155 17.4914 3.28145
142 1 33.615 31.251 17.4352 1.50253
212 1 37.2071 28.2464 13.685 3.47614
213 1 36.2091 30.0407 17.8748 4.44025
214 1 38.8359 31.1763 17.2858 4.30838
284 1 27.5531 4.18506 13.7991 1.36349
285 1 26.0193 4.82265 15.9307 2.89932
286 1 42.7554 29.4933 18.001 4.14442
356 1 31.6749 5.77375 14.6488 3.84412
357 1 46.3124 29.3234 14.8164 4.60438
358 1 50.9913 30.8439 22.1254 3.68453
428 1 34.8145 6.04559 16.23 3.55763
429 1 50.8866 30.3611 17.193 1.89016
430 1 36.3872 5.54191 18.1148 4.05173
443 2 9.10872 5.98447 15.076 3.69957
444 2 12.7519 7.21916 21.2319 3.98253
515 2 30.5504 31.5947 18.881 2.93227
516 2 17.6704 22.9906 -0.985687 2.1697
587 2 32.9671 28.6931 22.4679 3.06
588 2 25.5418 9.70744 17.8521 7.16747
659 2 44.9108 30.3474 22.6751 9.40209
660 2 27.0686 10.6603 23.005 3.208
721 2 50.1668 33.5363 22.6885 2.35138
731 2 48.7736 29.3184 20.1944 2.52052
732 2 33.0907 8.76998 19.832 3.22196
793 2 53.5248 33.6311 23.0743 3.89347
803 2 50.4343 32.8405 20.3102 2.29498
804 2 53.3624 32.1247 20.3741 2.43323
11 1 15.0296 6.46656 20.9808 1.47393
455 2 44.4276 10.8738 18.5527 2.60162
456 2 17.8226 6.83706 21.9514 3.28313
12 1 19.2624 9.87621 21.6907 5.00216
23 1 18.7635 14.0965 19.6365 3.83397
83 1 20.1216 6.49357 20.5072 3.56241
527 2 20.6601 9.2312 19.6905 2.62041
528 2 22.2426 16.8673 20.5524 2.36649
84 1 22.2731 8.14793 22.356 3.33022
95 1 24.5484 16.766 22.5472 3.89339
155 1 26.6722 8.40228 20.0299 3.99802
599 2 24.1869 8.0039 20.6746 3.65586
600 2 14.1437 2.18856 -1.44792 3.07661
156 1 15.0548 -1.33137 -1.07183 3.96106
167 1 29.2727 12.5746 18.8565 4.14916
671 2 29.3938 10.1004 21.1203 2.82918
227 1 31.2086 8.34808 20.9324 4.77806
228 1 34.4743 10.527 22.6841 2.95893
239 1 33.9014 12.9382 22.1846 4.58522
672 2 31.4513 14.1497 19.4589 2.31676
743 2 31.8722 11.6351 19.7402 2.65859
299 1 37.1062 8.40996 22.0794 3.65991
300 1 39.9246 9.32534 23.0079 5.05654
311 1 38.7641 9.56883 18.5725 5.11976
733 2 20.4957 4.57641 -0.967181 3.06181
744 2 37.4306 10.2021 22.8049 8.01904
815 2 39.8432 8.10016 21.0178 3.12711
371 1 42.2272 8.50998 22.6833 4.56071
372 1 42.7773 10.5798 21.3453 4.22752
383 1 45.2169 14.1906 20.7364 1.37678
805 2 26.2694 2.02818 -1.08081 2.24105
816 2 40.6896 15.876 21.884 2.35599
24 1 22.4754 14.9831 23.4094 3.91155
35 1 21.7141 20.4549 20.0081 5.61932
468 2 17.6299 15.7231 18.2848 5.12392
539 2 19.453 17.1787 19.8969 2.58823
96 1 27.7441 15.7079 22.9391 5.00502
107 1 28.9493 17.8421 22.8468 2.17781
540 2 22.8402 19.0263 21.5162 4.52916
611 2 26.8111 18.5789 23.3509 3.4971
612 2 25.6206 13.6523 20.6801 2.91836
168 1 31.1744 17.371 21.1712 3.66647
179 1 30.2222 20.5232 21.7941 4.43072
683 2 30.6841 14.533 16.6798 7.24172
684 2 33.304 17.2498 19.5409 2.19092
240 1 38.0068 12.8413 22.7366 6.08637
251 1 35.8974 16.6666 21.4114 2.26306
745 2 39.2785 12.6184 20.5754 2.93355
755 2 37.0949 13.273 19.4368 3.91187
756 2 36.688 20.4442 17.3585 2.34843
312 1 43.5314 16.0289 21.1485 1.5222
323 1 41.2839 17.0394 19.6791 3.22706
817 2 29.215 7.20547 -0.940624 7.82468
827 2 42.6694 13.8086 19.7318 2.81083
828 2 44.9054 16.6917 18.3388 3.79104
384 1 47.5895 14.8157 21.176 1.33915
395 1 46.112 16.7026 22.3455 1.57217
467 2 14.8067 9.386 21.8581 2.85707
480 2 21.6069 22.4936 19.8343 9.72844
36 1 21.6692 20.8359 22.0553 1.74632
47 1 24.1871 21.9868 22.7766 4.57932
48 1 11.1669 13.239 -0.772627 4.26908
551 2 24.0116 19.3742 18.9346 2.62444
552 2 27.2314 21.1213 19.5414 2.70334
563 2 23.676 24.2794 17.1621 2.51615
108 1 27.9285 22.4122 22.35 3.73956
119 1 25.5112 25.6678 17.1182 4.45523
623 2 28.1252 14.7186 19.877 2.42947
120 1 30.9039 23.1727 22.1837 6.85737
180 1 33.8736 17.3708 22.13 4.05671
191 1 34.291 21.269 22.6164 3.72212
624 2 29.0532 18.4965 20.1999 2.60523
635 2 34.5619 25.4333 18.0159 2.12225
695 2 36.5862 20.0869 22.2863 2.47851
192 1 35.1001 24.0559 22.6708 3.57427
252 1 21.9953 8.33174 -1.56365 3.96984
263 1 38.9064 20.1402 19.6424 4.66566
696 2 38.7435 17.9774 20.9767 2.30281
707 2 35.3643 23.9204 20.4573 2.9858
767 2 42.4205 19.8389 18.1008 2.59152
264 1 42.4148 26.3065 21.4995 3.53853
324 1 43.2805 18.2831 22.9839 1.94442
335 1 45.2893 25.3375 23.1857 5.48711
757 2 42.2885 20.2984 21.4639 2.54718
768 2 39.1674 22.3435 18.1124 5.70528
779 2 42.3686 22.6772 19.6295 2.58466
839 2 45.2534 19.3637 20.4642 2.65856
336 1 47.9803 23.5682 23.4831 3.9948
396 1 48.9848 17.666 22.3188 6.84808
407 1 32.9378 11.6454 -1.23045 4.2956
479 2 49.7246 22.2143 17.285 3.25094
829 2 42.2826 24.0069 22.9603 3.303
840 2 44.5168 20.8082 22.0051 2.61525
851 2 47.1491 20.6094 20.9289 2.86742
408 1 50.9126 22.3441 23.2485 1.4797
491 2 20.8781 22.9032 15.9151 3.03045
59 1 27.2704 28.5383 20.0562 3.64198
492 2 24.007 25.2934 21.7322 2.85527
503 2 53.1122 27.3669 20.6388 3.28853
60 1 14.7441 23.2772 1.25373 5.15545
564 2 27.4308 24.0406 19.0536 2.46457
575 2 29.7069 27.9731 19.2466 9.62682
131 1 30.4818 28.9613 21.1586 4.89853
132 1 20.8183 19.4811 -1.55839 1.77328
636 2 37.2377 26.5562 19.0746 1.8288
647 2 37.0746 28.4093 21.3905 2.64222
203 1 37.7788 26.3659 22.3621 3.81616
204 1 24.1464 16.0594 -0.599073 4.99241
708 2 40.423 24.2716 19.7924 2.31357
719 2 40.3645 27.8871 21.6211 2.36654
275 1 41.9368 26.7805 18.8943 3.42729
276 1 42.7014 29.379 20.5674 3.87589
769 2 26.7296 12.6677 2.20995 2.22186
780 2 44.0912 28.0433 23.0884 2.81141
791 2 43.8102 24.7856 19.7596 2.29405
347 1 46.7556 23.0634 20.6629 4.08865
348 1 48.3216 25.4078 21.2256 3.36421
841 2 34.2242 16.5462 -1.28209 3.05753
852 2 49.516 21.7781 21.2982 2.93413
863 2 50.1634 27.9315 18.3538 2.41925
419 1 51.6523 24.2641 21.5493 4.98388
420 1 54.0093 27.2155 22.9684 4.57779
504 2 41.102 6.35194 19.2965 3.75825
71 1 29.2703 30.9647 21.2016 1.54142
72 1 30.5733 32.3625 23.3468 2.89334
143 1 19.7816 21.4032 -0.710123 1.54826
576 2 32.0976 31.5217 21.0159 4.11021
144 1 22.0892 21.5243 -0.727683 4.91666
215 1 39.0455 33.0026 22.006 4.11746
648 2 36.7745 30.8472 21.0828 2.05213
216 1 42.9905 33.4793 23.1555 4.04156
287 1 45.367 32.6797 21.9067 1.22934
720 2 39.7484 29.1789 19.1014 2.34214
288 1 32.6029 24.1189 -1.28788 4.33842
359 1 48.4908 30.9464 22.7895 1.9892
781 2 47.5364 29.1111 23.665 3.63483
792 2 46.9464 27.0393 19.7516 3.14696
360 1 53.0555 30.1632 23.3211 4.17184
431 1 56.0826 30.3243 21.3285 4.65459
853 2 50.9465 26.8599 20.7612 2.59089
864 2 24.1901 27.0769 20.2482 3.40384
432 1 55.9713 32.6618 22.704 3.6094
